C  H  O  Pd
 1.0000000000000000
     9.5317092920176041    0.0000000000000000    0.0000000000000000
     0.0000000000000000   12.8477517144159332    0.0000000000000000
     0.0000000000000000    0.0000000000000000   32.1028443220921673
 C   H   O   Pd 
   1   3  97  48
Selective dynamics
Direct
  0.2163829755362015  0.0795828843681539  0.4717448841247605   T   T   T
  0.1590088523616352  0.0083890034054149  0.4618835264892693   T   T   T
  0.1449376716486009  0.1475095809010347  0.4690412531777785   T   T   T
  0.2499279484806665  0.0701984854196593  0.5045127657285806   T   T   T
  0.3312431510992574  0.3791569516052976  0.4261843818423632   T   T   T
  0.3324924870893233  0.1456318488892561  0.3251022109337177   T   T   T
  0.3327154358303791  0.1054033654180341  0.2477353615148134   T   T   T
  0.8310648620972587  0.0240044465120362  0.3878010552604489   T   T   T
  0.8333333333333357  0.2789897956032235  0.0851486940133555   F   F   F
  0.3322107484870739  0.8469658237786287  0.3485931563682566   T   T   T
  0.3311327908773725  0.8798057321803671  0.4254049912404124   T   T   T
  0.4984672709245450  0.7143403945196590  0.3988461350811549   T   T   T
  0.4984105010990290  0.5244634657482921  0.3906170334621061   T   T   T
  0.3327981117185931  0.6044488539874586  0.2476983926831819   T   T   T
  0.3325102705517083  0.6426991529341863  0.3242099595482344   T   T   T
  0.4999976639328576  0.5290466686199733  0.1895761637574985   F   F   F
  0.3333333333333357  0.8750000000000000  0.1467763379882641   F   F   F
  0.3333318648019943  0.8750000864356643  0.2250895420487288   F   F   F
  0.4999976377976332  0.7209531764862156  0.1895758217978223   F   F   F
  0.3333333333333357  0.6250000000000000  0.0467248317610185   F   F   F
  0.3333333333333357  0.6250000000000000  0.1235725562656853   F   F   F
  0.5000000000000000  0.9710102043967765  0.0851486940133555   F   F   F
  0.5000000000000000  0.7789897956032235  0.0851486940133555   F   F   F
  0.6644192153223059  0.8818182752262236  0.4258605144421967   T   T   T
  0.4991470424120238  0.9683528187938785  0.2951749621354471   T   T   T
  0.4995512470924067  0.7766687630100626  0.2779143507744006   T   T   T
  0.4992994015875961  0.4688475716832273  0.2972961899153302   T   T   T
  0.6655200944272707  0.3500528316811716  0.3493876306134211   T   T   T
  0.3409831693580365  0.0942543199949911  0.4489458361251715   T   T   T
  0.8317567569267551  0.7141920372173817  0.3984205734945653   T   T   T
  0.6659987566585551  0.6043533577639305  0.2476560208339231   T   T   T
  0.8319879745571652  0.5244070362052402  0.3904257150219591   T   T   T
  0.8333333333333357  0.4710102043967765  0.0851486940133555   F   F   F
  0.8333339558353259  0.0290462541212847  0.1895758119370538   F   F   F
  0.6666666666666643  0.1250000000000000  0.1235725562656853   F   F   F
  0.3333333333333357  0.3750000000000000  0.1467763379882641   F   F   F
  0.8325812217103121  0.9690390575186135  0.2966785329260521   T   T   T
  0.5010703563544037  0.2130428514861923  0.3984130144577507   T   T   T
  0.4990122823711553  0.2776841336665176  0.2784084087799993   T   T   T
  0.8333333409382341  0.7209531152421449  0.1895756052193645   F   F   F
  0.8326045993526381  0.7768406102221874  0.2780834762426030   T   T   T
  0.6666666666666643  0.8750000000000000  0.1467763379882641   F   F   F
  0.6666655358647100  0.8750000108504334  0.2250883423864175   F   F   F
  0.8333333008508301  0.5290468981117665  0.1895759154731361   F   F   F
  0.6666666666666643  0.6250000000000000  0.0467248317610185   F   F   F
  0.6666666666666643  0.6250000000000000  0.1235725562656853   F   F   F
  0.8333333333333357  0.9710102043967765  0.0851486940133555   F   F   F
  0.8333333333333357  0.7789897956032235  0.0851486940133555   F   F   F
  0.6656319417565874  0.6428133752309183  0.3241497608099975   T   T   T
  0.4981357740220201  0.0230621910256847  0.3772521305320118   T   T   T
  0.3317771554801925  0.3508929986029139  0.3492791918918132   T   T   T
 -0.0012563004481480  0.1460242402355128  0.3234810669776268   T   T   T
  0.0000003549571299  0.8750000107713112  0.2250882234763902   F   F   F
  0.8325569563753631  0.4688078681411397  0.2973284973873802   T   T   T
  0.8324857002244468  0.2777465173718952  0.2780299721342010   T   T   T
  0.6666666666666643  0.3750000000000000  0.1467763379882641   F   F   F
  0.6666664721965994  0.3750001394610554  0.2250885421256194   F   F   F
  0.8333336160653568  0.2209531548581329  0.1895755782756444   F   F   F
  0.6666666666666643  0.1250000000000000  0.0467248317610185   F   F   F
  0.3333326882537072  0.3749997926392740  0.2250885499289598   F   F   F
  0.6655745801803633  0.8475730950059264  0.3489051917570721   T   T   T
  0.4999980417944865  0.0290462347966568  0.1895760715474884   F   F   F
  0.1657080590875930  0.4688002027491772  0.2973284971247659   T   T   T
  0.1666659623339084  0.7209538630219027  0.1895756713862576   F   F   F
  0.1666659175182925  0.5290462010831961  0.1895759780398522   F   F   F
  0.0000000000000000  0.6250000000000000  0.0467248317610185   F   F   F
  0.4999988243319552  0.2209529651499486  0.1895755725505499   F   F   F
  0.1666666666666643  0.9710102043967765  0.0851486940133555   F   F   F
  0.1666666666666643  0.7789897956032235  0.0851486940133555   F   F   F
 -0.0021367873347150  0.3499497163955584  0.3493556050123017   T   T   T
  0.8313718355177203  0.2127644129223820  0.3992739175094654   T   T   T
  0.9985564722809047  0.3784900123157277  0.4264225907909230   T   T   T
  0.1613639265728009  0.2129179411539722  0.3977955836178614   T   T   T
  0.1638145586540051  0.0236085106970403  0.3784910512221700   T   T   T
  1.0004561163539094  0.1060279365134746  0.2475985966694941   T   T   T
  0.1662253863558007  0.2777134718144592  0.2783097500599455   T   T   T
  0.6649572811779801  0.3793162271841177  0.4264240344009139   T   T   T
  0.1660805308122835  0.9684094866246969  0.2953580434427683   T   T   T
  0.0000000000000000  0.3750000000000000  0.1467763379882641   F   F   F
  0.0000007107164886  0.3749999603060230  0.2250885125878732   F   F   F
  0.6660251820610824  0.1461507741305993  0.3237173728791187   T   T   T
  0.6649480447436955  0.1059763343042359  0.2476403633744832   T   T   T
  0.1666663400494306  0.0290460185855896  0.1895759024921872   F   F   F
  0.0000000000000000  0.1250000000000000  0.0467248317610185   F   F   F
  0.0000000000000000  0.1250000000000000  0.1235725562656853   F   F   F
  0.1666666666666643  0.4710102043967765  0.0851486940133555   F   F   F
  0.1666666666666643  0.2789897956032235  0.0851486940133555   F   F   F
  0.0000000000000000  0.8750000000000000  0.1467763379882641   F   F   F
  0.1657588732776956  0.7766560781314289  0.2779837256692090   T   T   T
  0.1666663027958614  0.2209539505437224  0.1895756072453514   F   F   F
  0.3333333333333357  0.1250000000000000  0.0467248317610185   F   F   F
  0.1652079470289959  0.5243826098623279  0.3905573029006107   T   T   T
  0.5000000000000000  0.2789897956032235  0.0851486940133555   F   F   F
  0.1651682954362433  0.7142870702835289  0.3986461692871047   T   T   T
  0.9993692877742663  0.8815629316029039  0.4258783547288748   T   T   T
  0.3333333333333357  0.1250000000000000  0.1235725562656853   F   F   F
  0.9996025342350261  0.6043424117525870  0.2476772205976606   T   T   T
  0.5000000000000000  0.4710102043967765  0.0851486940133555   F   F   F
 -0.0021399863641722  0.8481547962573214  0.3487732402832440   T   T   T
 -0.0005777284535183  0.6428204117658353  0.3241556816766084   T   T   T
  0.0000000000000000  0.6250000000000000  0.1235725562656853   F   F   F
  0.6662610143880117  0.8722967454456863  0.2876491780844537   T   T   T
  0.8326286284414326  0.6223040985957701  0.2858345476635231   T   T   T
  0.6666666666666643  0.8750000000000000  0.0851486940133555   F   F   F
  0.1668735434276438  0.1233300969270910  0.2861811166208238   T   T   T
  0.3308213621554186  0.1178351502138943  0.3879788348662878   T   T   T
  0.8333333333333357  0.6250000000000000  0.0851486940133555   F   F   F
  0.1666666847735583  0.3750001305958783  0.1858643915636921   F   F   F
  0.3326013977974676  0.8719110210042779  0.2875605207540731   T   T   T
  0.5000014304295636  0.3749999974283293  0.1858644222348644   F   F   F
  0.3333354546060130  0.1249999476819220  0.1847578122735502   F   F   F
  0.4982488019853286  0.1232612465269732  0.2862170927320159   T   T   T
  0.8316427701675910  0.8686638722869057  0.3877648029870879   T   T   T
  0.6649841243565801  0.6202509388048361  0.3857176817783879   T   T   T
  0.0000000000000000  0.3750000000000000  0.0851486940133555   F   F   F
  0.9999970987911158  0.1250000184490408  0.1847578466783704   F   F   F
  0.3333333333333357  0.3750000000000000  0.0851486940133555   F   F   F
  0.1648398114766017  0.3684843947853023  0.3880689562950496   T   T   T
  0.1666666666666643  0.1250000000000000  0.0851486940133555   F   F   F
  0.6666655568862668  0.6249997720375131  0.1847577838516319   F   F   F
  0.3325666245346658  0.3728988963997171  0.2879040574418005   T   T   T
  0.8333311666192106  0.8749995704976669  0.1858642171120021   F   F   F
  0.3333333333333357  0.8750000000000000  0.0851486940133555   F   F   F
  0.5000000000000000  0.1250000000000000  0.0851486940133555   F   F   F
  0.5000005790671146  0.8749996008049955  0.1858647103970161   F   F   F
  0.4983269766220413  0.8699992184136571  0.3878043338989838   T   T   T
  0.3319082329221419  0.6207073926223133  0.3858386454040691   T   T   T
  0.3333348655297959  0.6249998188937667  0.1847577531331055   F   F   F
  0.9999968754065039  0.6249998164331720  0.1847577848474051   F   F   F
  0.8333333333333357  0.1250000000000000  0.0851486940133555   F   F   F
  0.6666666666666643  0.3750000000000000  0.0851486940133555   F   F   F
  0.1666668975657561  0.8749998441626324  0.1858646099702742   F   F   F
  0.9986207347338312  0.6203164302742459  0.3856930925842026   T   T   T
  0.6644996012628194  0.1196851967958582  0.3849673090865081   T   T   T
  0.6666662687465629  0.1249996349829204  0.1847578301666214   F   F   F
  0.0000000000000000  0.8750000000000000  0.0851486940133555   F   F   F
  0.1666666666666643  0.6250000000000000  0.0851486940133555   F   F   F
  0.8324636517847126  0.1230618654471773  0.2854129782820728   T   T   T
  0.6659380946824527  0.3727107727816017  0.2879509248330364   T   T   T
  0.5000000000000000  0.6250000000000000  0.0851486940133555   F   F   F
  0.9963794242979933  0.1199039624313753  0.3846216781566962   T   T   T
  0.4992678635481291  0.6223546811343114  0.2858485467937629   T   T   T
  0.1659916080851882  0.6222825340662552  0.2858657287898151   T   T   T
  0.8333316115610666  0.3750001538755701  0.1858644410325545   F   F   F
  0.9989809017878138  0.8722989945398292  0.2875911913184401   T   T   T
  0.9991317318360240  0.3726307232243347  0.2879269345820483   T   T   T
  0.8315802144126624  0.3682385999632043  0.3883960884557526   T   T   T
  0.4983451045484871  0.3682564328347403  0.3882072572898035   T   T   T
  0.1651271838819091  0.8693792035156823  0.3874991319724975   T   T   T
Cartesian
  0.0000000000000000  0.0000000000000000  0.0000000000000000
  0.0000000000000000  0.0000000000000000  0.0000000000000000
  0.0000000000000000  0.0000000000000000  0.0000000000000000
  0.0000000000000000  0.0000000000000000  0.0000000000000000
  0.0000000000000000  0.0000000000000000  0.0000000000000000
  0.0000000000000000  0.0000000000000000  0.0000000000000000
  0.0000000000000000  0.0000000000000000  0.0000000000000000
  0.0000000000000000  0.0000000000000000  0.0000000000000000
  0.0000000000000000  0.0000000000000000  0.0000000000000000
  0.0000000000000000  0.0000000000000000  0.0000000000000000
  0.0000000000000000  0.0000000000000000  0.0000000000000000
  0.0000000000000000  0.0000000000000000  0.0000000000000000
  0.0000000000000000  0.0000000000000000  0.0000000000000000
  0.0000000000000000  0.0000000000000000  0.0000000000000000
  0.0000000000000000  0.0000000000000000  0.0000000000000000
  0.0000000000000000  0.0000000000000000  0.0000000000000000
  0.0000000000000000  0.0000000000000000  0.0000000000000000
  0.0000000000000000  0.0000000000000000  0.0000000000000000
  0.0000000000000000  0.0000000000000000  0.0000000000000000
  0.0000000000000000  0.0000000000000000  0.0000000000000000
  0.0000000000000000  0.0000000000000000  0.0000000000000000
  0.0000000000000000  0.0000000000000000  0.0000000000000000
  0.0000000000000000  0.0000000000000000  0.0000000000000000
  0.0000000000000000  0.0000000000000000  0.0000000000000000
  0.0000000000000000  0.0000000000000000  0.0000000000000000
  0.0000000000000000  0.0000000000000000  0.0000000000000000
  0.0000000000000000  0.0000000000000000  0.0000000000000000
  0.0000000000000000  0.0000000000000000  0.0000000000000000
  0.0000000000000000  0.0000000000000000  0.0000000000000000
  0.0000000000000000  0.0000000000000000  0.0000000000000000
  0.0000000000000000  0.0000000000000000  0.0000000000000000
  0.0000000000000000  0.0000000000000000  0.0000000000000000
  0.0000000000000000  0.0000000000000000  0.0000000000000000
  0.0000000000000000  0.0000000000000000  0.0000000000000000
  0.0000000000000000  0.0000000000000000  0.0000000000000000
  0.0000000000000000  0.0000000000000000  0.0000000000000000
  0.0000000000000000  0.0000000000000000  0.0000000000000000
  0.0000000000000000  0.0000000000000000  0.0000000000000000
  0.0000000000000000  0.0000000000000000  0.0000000000000000
  0.0000000000000000  0.0000000000000000  0.0000000000000000
  0.0000000000000000  0.0000000000000000  0.0000000000000000
  0.0000000000000000  0.0000000000000000  0.0000000000000000
  0.0000000000000000  0.0000000000000000  0.0000000000000000
  0.0000000000000000  0.0000000000000000  0.0000000000000000
  0.0000000000000000  0.0000000000000000  0.0000000000000000
  0.0000000000000000  0.0000000000000000  0.0000000000000000
  0.0000000000000000  0.0000000000000000  0.0000000000000000
  0.0000000000000000  0.0000000000000000  0.0000000000000000
  0.0000000000000000  0.0000000000000000  0.0000000000000000
  0.0000000000000000  0.0000000000000000  0.0000000000000000
  0.0000000000000000  0.0000000000000000  0.0000000000000000
  0.0000000000000000  0.0000000000000000  0.0000000000000000
  0.0000000000000000  0.0000000000000000  0.0000000000000000
  0.0000000000000000  0.0000000000000000  0.0000000000000000
  0.0000000000000000  0.0000000000000000  0.0000000000000000
  0.0000000000000000  0.0000000000000000  0.0000000000000000
  0.0000000000000000  0.0000000000000000  0.0000000000000000
  0.0000000000000000  0.0000000000000000  0.0000000000000000
  0.0000000000000000  0.0000000000000000  0.0000000000000000
  0.0000000000000000  0.0000000000000000  0.0000000000000000
  0.0000000000000000  0.0000000000000000  0.0000000000000000
  0.0000000000000000  0.0000000000000000  0.0000000000000000
  0.0000000000000000  0.0000000000000000  0.0000000000000000
  0.0000000000000000  0.0000000000000000  0.0000000000000000
  0.0000000000000000  0.0000000000000000  0.0000000000000000
  0.0000000000000000  0.0000000000000000  0.0000000000000000
  0.0000000000000000  0.0000000000000000  0.0000000000000000
  0.0000000000000000  0.0000000000000000  0.0000000000000000
  0.0000000000000000  0.0000000000000000  0.0000000000000000
  0.0000000000000000  0.0000000000000000  0.0000000000000000
  0.0000000000000000  0.0000000000000000  0.0000000000000000
  0.0000000000000000  0.0000000000000000  0.0000000000000000
  0.0000000000000000  0.0000000000000000  0.0000000000000000
  0.0000000000000000  0.0000000000000000  0.0000000000000000
  0.0000000000000000  0.0000000000000000  0.0000000000000000
  0.0000000000000000  0.0000000000000000  0.0000000000000000
  0.0000000000000000  0.0000000000000000  0.0000000000000000
  0.0000000000000000  0.0000000000000000  0.0000000000000000
  0.0000000000000000  0.0000000000000000  0.0000000000000000
  0.0000000000000000  0.0000000000000000  0.0000000000000000
  0.0000000000000000  0.0000000000000000  0.0000000000000000
  0.0000000000000000  0.0000000000000000  0.0000000000000000
  0.0000000000000000  0.0000000000000000  0.0000000000000000
  0.0000000000000000  0.0000000000000000  0.0000000000000000
  0.0000000000000000  0.0000000000000000  0.0000000000000000
  0.0000000000000000  0.0000000000000000  0.0000000000000000
  0.0000000000000000  0.0000000000000000  0.0000000000000000
  0.0000000000000000  0.0000000000000000  0.0000000000000000
  0.0000000000000000  0.0000000000000000  0.0000000000000000
  0.0000000000000000  0.0000000000000000  0.0000000000000000
  0.0000000000000000  0.0000000000000000  0.0000000000000000
  0.0000000000000000  0.0000000000000000  0.0000000000000000
  0.0000000000000000  0.0000000000000000  0.0000000000000000
  0.0000000000000000  0.0000000000000000  0.0000000000000000
  0.0000000000000000  0.0000000000000000  0.0000000000000000
  0.0000000000000000  0.0000000000000000  0.0000000000000000
  0.0000000000000000  0.0000000000000000  0.0000000000000000
  0.0000000000000000  0.0000000000000000  0.0000000000000000
  0.0000000000000000  0.0000000000000000  0.0000000000000000
  0.0000000000000000  0.0000000000000000  0.0000000000000000
  0.0000000000000000  0.0000000000000000  0.0000000000000000
  0.0000000000000000  0.0000000000000000  0.0000000000000000
  0.0000000000000000  0.0000000000000000  0.0000000000000000
  0.0000000000000000  0.0000000000000000  0.0000000000000000
  0.0000000000000000  0.0000000000000000  0.0000000000000000
  0.0000000000000000  0.0000000000000000  0.0000000000000000
  0.0000000000000000  0.0000000000000000  0.0000000000000000
  0.0000000000000000  0.0000000000000000  0.0000000000000000
  0.0000000000000000  0.0000000000000000  0.0000000000000000
  0.0000000000000000  0.0000000000000000  0.0000000000000000
  0.0000000000000000  0.0000000000000000  0.0000000000000000
  0.0000000000000000  0.0000000000000000  0.0000000000000000
  0.0000000000000000  0.0000000000000000  0.0000000000000000
  0.0000000000000000  0.0000000000000000  0.0000000000000000
  0.0000000000000000  0.0000000000000000  0.0000000000000000
  0.0000000000000000  0.0000000000000000  0.0000000000000000
  0.0000000000000000  0.0000000000000000  0.0000000000000000
  0.0000000000000000  0.0000000000000000  0.0000000000000000
  0.0000000000000000  0.0000000000000000  0.0000000000000000
  0.0000000000000000  0.0000000000000000  0.0000000000000000
  0.0000000000000000  0.0000000000000000  0.0000000000000000
  0.0000000000000000  0.0000000000000000  0.0000000000000000
  0.0000000000000000  0.0000000000000000  0.0000000000000000
  0.0000000000000000  0.0000000000000000  0.0000000000000000
  0.0000000000000000  0.0000000000000000  0.0000000000000000
  0.0000000000000000  0.0000000000000000  0.0000000000000000
  0.0000000000000000  0.0000000000000000  0.0000000000000000
  0.0000000000000000  0.0000000000000000  0.0000000000000000
  0.0000000000000000  0.0000000000000000  0.0000000000000000
  0.0000000000000000  0.0000000000000000  0.0000000000000000
  0.0000000000000000  0.0000000000000000  0.0000000000000000
  0.0000000000000000  0.0000000000000000  0.0000000000000000
  0.0000000000000000  0.0000000000000000  0.0000000000000000
  0.0000000000000000  0.0000000000000000  0.0000000000000000
  0.0000000000000000  0.0000000000000000  0.0000000000000000
  0.0000000000000000  0.0000000000000000  0.0000000000000000
  0.0000000000000000  0.0000000000000000  0.0000000000000000
  0.0000000000000000  0.0000000000000000  0.0000000000000000
  0.0000000000000000  0.0000000000000000  0.0000000000000000
  0.0000000000000000  0.0000000000000000  0.0000000000000000
  0.0000000000000000  0.0000000000000000  0.0000000000000000
  0.0000000000000000  0.0000000000000000  0.0000000000000000
  0.0000000000000000  0.0000000000000000  0.0000000000000000
  0.0000000000000000  0.0000000000000000  0.0000000000000000
  0.0000000000000000  0.0000000000000000  0.0000000000000000
  0.0000000000000000  0.0000000000000000  0.0000000000000000
  0.0000000000000000  0.0000000000000000  0.0000000000000000
  0.0000000000000000  0.0000000000000000  0.0000000000000000
  0.0000000000000000  0.0000000000000000  0.0000000000000000
