C  H  O  Pd
 1.0000000000000000
     9.5317092920176041    0.0000000000000000    0.0000000000000000
     0.0000000000000000   12.8477517144159332    0.0000000000000000
     0.0000000000000000    0.0000000000000000   32.1028443220921673
 C   H   O   Pd 
   1   3  97  48
Selective dynamics
Direct
  0.4418274534001830  0.6728226661761094  0.4725455769737595   T   T   T
  0.4725750128524727  0.7557080174457291  0.4687983408497387   T   T   T
  0.5318854801460379  0.6222556741469178  0.4638888020156375   T   T   T
  0.4133335319060018  0.6578402010830431  0.5054504096684234   T   T   T
  0.3346232717183374  0.3697083072627921  0.4259066436243340   T   T   T
  0.3335600144328543  0.1070035814730971  0.3242201958938936   T   T   T
  0.3333374986782434  0.1448703014997891  0.2477183950844251   T   T   T
  0.8340073729687594  0.0361851843658993  0.3983238301390257   T   T   T
  0.8333333333333357  0.2789897956032235  0.0851486940133555   F   F   F
  0.3338874669033092  0.9035454121217019  0.3486293349924897   T   T   T
  0.3345766822335548  0.8694275187557273  0.4253831621003481   T   T   T
  0.5016406583936928  0.7261311101578198  0.3793559254174028   T   T   T
  0.5044573934872089  0.5368190468158757  0.3981869699455848   T   T   T
  0.3337454494918725  0.6451225669818211  0.2478535660028036   T   T   T
  0.3336286189774672  0.6050271346911246  0.3252407366925297   T   T   T
  0.4999976639328576  0.5290466686199733  0.1895761637574985   F   F   F
  0.3333333333333357  0.8750000000000000  0.1467763379882641   F   F   F
  0.3333318648019943  0.8750000864356643  0.2250895420487288   F   F   F
  0.4999976377976332  0.7209531764862156  0.1895758217978223   F   F   F
  0.3333333333333357  0.6250000000000000  0.0467248317610185   F   F   F
  0.3333333333333357  0.6250000000000000  0.1235725562656853   F   F   F
  0.5000000000000000  0.9710102043967765  0.0851486940133555   F   F   F
  0.5000000000000000  0.7789897956032235  0.0851486940133555   F   F   F
  0.6665534263812749  0.8682350793028856  0.4257035507492084   T   T   T
  0.5004953028367337  0.9732935932095270  0.2780640200816775   T   T   T
  0.5003522843854948  0.7819092709918911  0.2956082155579773   T   T   T
  0.5000444415774424  0.4725633371871974  0.2782782847419153   T   T   T
  0.6681351171897240  0.4001173629365869  0.3492091631974604   T   T   T
  0.3206292325824527  0.6497359896710844  0.4494062176963262   T   T   T
  0.8345600097395730  0.7262382261961114  0.3873431627467113   T   T   T
  0.6659723236953281  0.6442787673067427  0.2476853638243087   T   T   T
  0.8340907946142919  0.5371667752817413  0.3993532384381164   T   T   T
  0.8333333333333357  0.4710102043967765  0.0851486940133555   F   F   F
  0.8333339558353259  0.0290462541212847  0.1895758119370538   F   F   F
  0.6666666666666643  0.1250000000000000  0.1235725562656853   F   F   F
  0.3333333333333357  0.3750000000000000  0.1467763379882641   F   F   F
  0.8338370621182618  0.9732461552963130  0.2780484717508682   T   T   T
  0.5005691751273843  0.2255511414003122  0.3902807614796178   T   T   T
  0.5005386556800294  0.2811220757360164  0.2973057380326015   T   T   T
  0.8333333409382341  0.7209531152421449  0.1895756052193645   F   F   F
  0.8336805909717425  0.7813323889749385  0.2967073043855467   T   T   T
  0.6666666666666643  0.8750000000000000  0.1467763379882641   F   F   F
  0.6666655358647100  0.8750000108504334  0.2250883423864175   F   F   F
  0.8333333008508301  0.5290468981117665  0.1895759154731361   F   F   F
  0.6666666666666643  0.6250000000000000  0.0467248317610185   F   F   F
  0.6666666666666643  0.6250000000000000  0.1235725562656853   F   F   F
  0.8333333333333357  0.9710102043967765  0.0851486940133555   F   F   F
  0.8333333333333357  0.7789897956032235  0.0851486940133555   F   F   F
  0.6675700254898277  0.6047583382616309  0.3235853246007929   T   T   T
  0.5010581841221142  0.0358214097794279  0.3985645855336060   T   T   T
  0.3340497353170801  0.3995221530126048  0.3491166895974594   T   T   T
  0.0001885087824468  0.1074080645652206  0.3241766452932779   T   T   T
  0.0000003549571299  0.8750000107713112  0.2250882234763902   F   F   F
  0.8337783033304660  0.4723449170333085  0.2779562712810498   T   T   T
  0.8336359725167378  0.2811074419187969  0.2971270450214281   T   T   T
  0.6666666666666643  0.3750000000000000  0.1467763379882641   F   F   F
  0.6666664721965994  0.3750001394610554  0.2250885421256194   F   F   F
  0.8333336160653568  0.2209531548581329  0.1895755782756444   F   F   F
  0.6666666666666643  0.1250000000000000  0.0467248317610185   F   F   F
  0.3333326882537072  0.3749997926392740  0.2250885499289598   F   F   F
  0.6680598984994253  0.9028801946788260  0.3487525284411567   T   T   T
  0.4999980417944865  0.0290462347966568  0.1895760715474884   F   F   F
  0.1673007879929808  0.4724061493454428  0.2783150654785618   T   T   T
  0.1666659623339084  0.7209538630219027  0.1895756713862576   F   F   F
  0.1666659175182925  0.5290462010831961  0.1895759780398522   F   F   F
  0.0000000000000000  0.6250000000000000  0.0467248317610185   F   F   F
  0.4999988243319552  0.2209529651499486  0.1895755725505499   F   F   F
  0.1666666666666643  0.9710102043967765  0.0851486940133555   F   F   F
  0.1666666666666643  0.7789897956032235  0.0851486940133555   F   F   F
  0.0003058076538016  0.3996681581963652  0.3492762044784083   T   T   T
  0.8341552092874019  0.2257360113975671  0.3901687492535439   T   T   T
  1.0011657388047810  0.3699808909493649  0.4263171716216872   T   T   T
  0.1676756354050727  0.2253401192983526  0.3904810355424889   T   T   T
  0.1671596470919192  0.0356387079972783  0.3988238655242096   T   T   T
  1.0001433631340768  0.1449108992652056  0.2476997765320960   T   T   T
  0.1668510774400791  0.2810646503596278  0.2972506884283493   T   T   T
  0.6670120541262063  0.3707179643105130  0.4262423498248113   T   T   T
  0.1665488820692713  0.9731698658679294  0.2780280377359272   T   T   T
  0.0000000000000000  0.3750000000000000  0.1467763379882641   F   F   F
  0.0000007107164886  0.3749999603060230  0.2250885125878732   F   F   F
  0.6670482483739093  0.1071195034965570  0.3242062928704517   T   T   T
  0.6669554577998674  0.1447803622236033  0.2476866776259761   T   T   T
  0.1666663400494306  0.0290460185855896  0.1895759024921872   F   F   F
  0.0000000000000000  0.1250000000000000  0.0467248317610185   F   F   F
  0.0000000000000000  0.1250000000000000  0.1235725562656853   F   F   F
  0.1666666666666643  0.4710102043967765  0.0851486940133555   F   F   F
  0.1666666666666643  0.2789897956032235  0.0851486940133555   F   F   F
  0.0000000000000000  0.8750000000000000  0.1467763379882641   F   F   F
  0.1670326005511688  0.7817957885417041  0.2951243385223162   T   T   T
  0.1666663027958614  0.2209539505437224  0.1895756072453514   F   F   F
  0.3333333333333357  0.1250000000000000  0.0467248317610185   F   F   F
  0.1638193521038470  0.5365057730028822  0.3982264422089918   T   T   T
  0.5000000000000000  0.2789897956032235  0.0851486940133555   F   F   F
  0.1669061364273527  0.7267179021297905  0.3772743102590843   T   T   T
  1.0014469010035167  0.8676223334728902  0.4256535281436154   T   T   T
  0.3333333333333357  0.1250000000000000  0.1235725562656853   F   F   F
  1.0016075333328098  0.6441875608168849  0.2476640573963741   T   T   T
  0.5000000000000000  0.4710102043967765  0.0851486940133555   F   F   F
  0.0003720479513310  0.9030704638352504  0.3488660630693279   T   T   T
  0.0003177278449498  0.6038925679921637  0.3236889473173248   T   T   T
  0.0000000000000000  0.6250000000000000  0.1235725562656853   F   F   F
  0.6673375018174683  0.8779628473265336  0.2876184357445920   T   T   T
  0.8339920418350441  0.6270785934053019  0.2854933266419920   T   T   T
  0.6666666666666643  0.8750000000000000  0.0851486940133555   F   F   F
  0.1667807967923037  0.1273720811550543  0.2858973822084012   T   T   T
  0.3338990737637224  0.1293680250578581  0.3856781411680301   T   T   T
  0.8333333333333357  0.6250000000000000  0.0851486940133555   F   F   F
  0.1666666847735583  0.3750001305958783  0.1858643915636921   F   F   F
  0.3336822396638827  0.8781033958596689  0.2875992284217640   T   T   T
  0.5000014304295636  0.3749999974283293  0.1858644222348644   F   F   F
  0.3333354546060130  0.1249999476819220  0.1847578122735502   F   F   F
  0.5002872361134033  0.1275074205655834  0.2858949324205783   T   T   T
  0.8341043625635831  0.8814810582833426  0.3876867276108331   T   T   T
  0.6689543897465792  0.6301889799757102  0.3847877562902970   T   T   T
  0.0000000000000000  0.3750000000000000  0.0851486940133555   F   F   F
  0.9999970987911158  0.1250000184490408  0.1847578466783704   F   F   F
  0.3333333333333357  0.3750000000000000  0.0851486940133555   F   F   F
  0.1674463433962604  0.3813785729179256  0.3880485373305198   T   T   T
  0.1666666666666643  0.1250000000000000  0.0851486940133555   F   F   F
  0.6666655568862668  0.6249997720375131  0.1847577838516319   F   F   F
  0.3336912953836733  0.3772013949988718  0.2878280618058557   T   T   T
  0.8333311666192106  0.8749995704976669  0.1858642171120021   F   F   F
  0.3333333333333357  0.8750000000000000  0.0851486940133555   F   F   F
  0.5000000000000000  0.1250000000000000  0.0851486940133555   F   F   F
  0.5000005790671146  0.8749996008049955  0.1858647103970161   F   F   F
  0.5007097046054533  0.8805998998545020  0.3875085497559397   T   T   T
  0.3342116780051743  0.6317375080640130  0.3881657266273351   T   T   T
  0.3333348655297959  0.6249998188937667  0.1847577531331055   F   F   F
  0.9999968754065039  0.6249998164331720  0.1847577848474051   F   F   F
  0.8333333333333357  0.1250000000000000  0.0851486940133555   F   F   F
  0.6666666666666643  0.3750000000000000  0.0851486940133555   F   F   F
  0.1666668975657561  0.8749998441626324  0.1858646099702742   F   F   F
  1.0007805031619987  0.6303116032577842  0.3849082261656897   T   T   T
  0.6673823587541087  0.1299983378214073  0.3855521172997025   T   T   T
  0.6666662687465629  0.1249996349829204  0.1847578301666214   F   F   F
  0.0000000000000000  0.8750000000000000  0.0851486940133555   F   F   F
  0.1666666666666643  0.6250000000000000  0.0851486940133555   F   F   F
  0.8335788700505182  0.1275053468667191  0.2858927519144015   T   T   T
  0.6671029499323683  0.3774170696102648  0.2878277392830821   T   T   T
  0.5000000000000000  0.6250000000000000  0.0851486940133555   F   F   F
  1.0009320940453466  0.1297528519202297  0.3856378201810846   T   T   T
  0.4994391205669181  0.6269475035034184  0.2863132949926555   T   T   T
  0.1681531546016564  0.6267914353711310  0.2862915890464199   T   T   T
  0.8333316115610666  0.3750001538755701  0.1858644410325545   F   F   F
  0.9999696970089313  0.8778581451224240  0.2877043193452358   T   T   T
  1.0002926143157824  0.3772743862856940  0.2878679808913455   T   T   T
  0.8342096861269047  0.3817428199192469  0.3883827505496324   T   T   T
  0.5009170531719737  0.3813897133547914  0.3878978971312146   T   T   T
  0.1675285886513016  0.8799055145119508  0.3877215864557035   T   T   T
Cartesian
  0.0000000000000000  0.0000000000000000  0.0000000000000000
  0.0000000000000000  0.0000000000000000  0.0000000000000000
  0.0000000000000000  0.0000000000000000  0.0000000000000000
  0.0000000000000000  0.0000000000000000  0.0000000000000000
  0.0000000000000000  0.0000000000000000  0.0000000000000000
  0.0000000000000000  0.0000000000000000  0.0000000000000000
  0.0000000000000000  0.0000000000000000  0.0000000000000000
  0.0000000000000000  0.0000000000000000  0.0000000000000000
  0.0000000000000000  0.0000000000000000  0.0000000000000000
  0.0000000000000000  0.0000000000000000  0.0000000000000000
  0.0000000000000000  0.0000000000000000  0.0000000000000000
  0.0000000000000000  0.0000000000000000  0.0000000000000000
  0.0000000000000000  0.0000000000000000  0.0000000000000000
  0.0000000000000000  0.0000000000000000  0.0000000000000000
  0.0000000000000000  0.0000000000000000  0.0000000000000000
  0.0000000000000000  0.0000000000000000  0.0000000000000000
  0.0000000000000000  0.0000000000000000  0.0000000000000000
  0.0000000000000000  0.0000000000000000  0.0000000000000000
  0.0000000000000000  0.0000000000000000  0.0000000000000000
  0.0000000000000000  0.0000000000000000  0.0000000000000000
  0.0000000000000000  0.0000000000000000  0.0000000000000000
  0.0000000000000000  0.0000000000000000  0.0000000000000000
  0.0000000000000000  0.0000000000000000  0.0000000000000000
  0.0000000000000000  0.0000000000000000  0.0000000000000000
  0.0000000000000000  0.0000000000000000  0.0000000000000000
  0.0000000000000000  0.0000000000000000  0.0000000000000000
  0.0000000000000000  0.0000000000000000  0.0000000000000000
  0.0000000000000000  0.0000000000000000  0.0000000000000000
  0.0000000000000000  0.0000000000000000  0.0000000000000000
  0.0000000000000000  0.0000000000000000  0.0000000000000000
  0.0000000000000000  0.0000000000000000  0.0000000000000000
  0.0000000000000000  0.0000000000000000  0.0000000000000000
  0.0000000000000000  0.0000000000000000  0.0000000000000000
  0.0000000000000000  0.0000000000000000  0.0000000000000000
  0.0000000000000000  0.0000000000000000  0.0000000000000000
  0.0000000000000000  0.0000000000000000  0.0000000000000000
  0.0000000000000000  0.0000000000000000  0.0000000000000000
  0.0000000000000000  0.0000000000000000  0.0000000000000000
  0.0000000000000000  0.0000000000000000  0.0000000000000000
  0.0000000000000000  0.0000000000000000  0.0000000000000000
  0.0000000000000000  0.0000000000000000  0.0000000000000000
  0.0000000000000000  0.0000000000000000  0.0000000000000000
  0.0000000000000000  0.0000000000000000  0.0000000000000000
  0.0000000000000000  0.0000000000000000  0.0000000000000000
  0.0000000000000000  0.0000000000000000  0.0000000000000000
  0.0000000000000000  0.0000000000000000  0.0000000000000000
  0.0000000000000000  0.0000000000000000  0.0000000000000000
  0.0000000000000000  0.0000000000000000  0.0000000000000000
  0.0000000000000000  0.0000000000000000  0.0000000000000000
  0.0000000000000000  0.0000000000000000  0.0000000000000000
  0.0000000000000000  0.0000000000000000  0.0000000000000000
  0.0000000000000000  0.0000000000000000  0.0000000000000000
  0.0000000000000000  0.0000000000000000  0.0000000000000000
  0.0000000000000000  0.0000000000000000  0.0000000000000000
  0.0000000000000000  0.0000000000000000  0.0000000000000000
  0.0000000000000000  0.0000000000000000  0.0000000000000000
  0.0000000000000000  0.0000000000000000  0.0000000000000000
  0.0000000000000000  0.0000000000000000  0.0000000000000000
  0.0000000000000000  0.0000000000000000  0.0000000000000000
  0.0000000000000000  0.0000000000000000  0.0000000000000000
  0.0000000000000000  0.0000000000000000  0.0000000000000000
  0.0000000000000000  0.0000000000000000  0.0000000000000000
  0.0000000000000000  0.0000000000000000  0.0000000000000000
  0.0000000000000000  0.0000000000000000  0.0000000000000000
  0.0000000000000000  0.0000000000000000  0.0000000000000000
  0.0000000000000000  0.0000000000000000  0.0000000000000000
  0.0000000000000000  0.0000000000000000  0.0000000000000000
  0.0000000000000000  0.0000000000000000  0.0000000000000000
  0.0000000000000000  0.0000000000000000  0.0000000000000000
  0.0000000000000000  0.0000000000000000  0.0000000000000000
  0.0000000000000000  0.0000000000000000  0.0000000000000000
  0.0000000000000000  0.0000000000000000  0.0000000000000000
  0.0000000000000000  0.0000000000000000  0.0000000000000000
  0.0000000000000000  0.0000000000000000  0.0000000000000000
  0.0000000000000000  0.0000000000000000  0.0000000000000000
  0.0000000000000000  0.0000000000000000  0.0000000000000000
  0.0000000000000000  0.0000000000000000  0.0000000000000000
  0.0000000000000000  0.0000000000000000  0.0000000000000000
  0.0000000000000000  0.0000000000000000  0.0000000000000000
  0.0000000000000000  0.0000000000000000  0.0000000000000000
  0.0000000000000000  0.0000000000000000  0.0000000000000000
  0.0000000000000000  0.0000000000000000  0.0000000000000000
  0.0000000000000000  0.0000000000000000  0.0000000000000000
  0.0000000000000000  0.0000000000000000  0.0000000000000000
  0.0000000000000000  0.0000000000000000  0.0000000000000000
  0.0000000000000000  0.0000000000000000  0.0000000000000000
  0.0000000000000000  0.0000000000000000  0.0000000000000000
  0.0000000000000000  0.0000000000000000  0.0000000000000000
  0.0000000000000000  0.0000000000000000  0.0000000000000000
  0.0000000000000000  0.0000000000000000  0.0000000000000000
  0.0000000000000000  0.0000000000000000  0.0000000000000000
  0.0000000000000000  0.0000000000000000  0.0000000000000000
  0.0000000000000000  0.0000000000000000  0.0000000000000000
  0.0000000000000000  0.0000000000000000  0.0000000000000000
  0.0000000000000000  0.0000000000000000  0.0000000000000000
  0.0000000000000000  0.0000000000000000  0.0000000000000000
  0.0000000000000000  0.0000000000000000  0.0000000000000000
  0.0000000000000000  0.0000000000000000  0.0000000000000000
  0.0000000000000000  0.0000000000000000  0.0000000000000000
  0.0000000000000000  0.0000000000000000  0.0000000000000000
  0.0000000000000000  0.0000000000000000  0.0000000000000000
  0.0000000000000000  0.0000000000000000  0.0000000000000000
  0.0000000000000000  0.0000000000000000  0.0000000000000000
  0.0000000000000000  0.0000000000000000  0.0000000000000000
  0.0000000000000000  0.0000000000000000  0.0000000000000000
  0.0000000000000000  0.0000000000000000  0.0000000000000000
  0.0000000000000000  0.0000000000000000  0.0000000000000000
  0.0000000000000000  0.0000000000000000  0.0000000000000000
  0.0000000000000000  0.0000000000000000  0.0000000000000000
  0.0000000000000000  0.0000000000000000  0.0000000000000000
  0.0000000000000000  0.0000000000000000  0.0000000000000000
  0.0000000000000000  0.0000000000000000  0.0000000000000000
  0.0000000000000000  0.0000000000000000  0.0000000000000000
  0.0000000000000000  0.0000000000000000  0.0000000000000000
  0.0000000000000000  0.0000000000000000  0.0000000000000000
  0.0000000000000000  0.0000000000000000  0.0000000000000000
  0.0000000000000000  0.0000000000000000  0.0000000000000000
  0.0000000000000000  0.0000000000000000  0.0000000000000000
  0.0000000000000000  0.0000000000000000  0.0000000000000000
  0.0000000000000000  0.0000000000000000  0.0000000000000000
  0.0000000000000000  0.0000000000000000  0.0000000000000000
  0.0000000000000000  0.0000000000000000  0.0000000000000000
  0.0000000000000000  0.0000000000000000  0.0000000000000000
  0.0000000000000000  0.0000000000000000  0.0000000000000000
  0.0000000000000000  0.0000000000000000  0.0000000000000000
  0.0000000000000000  0.0000000000000000  0.0000000000000000
  0.0000000000000000  0.0000000000000000  0.0000000000000000
  0.0000000000000000  0.0000000000000000  0.0000000000000000
  0.0000000000000000  0.0000000000000000  0.0000000000000000
  0.0000000000000000  0.0000000000000000  0.0000000000000000
  0.0000000000000000  0.0000000000000000  0.0000000000000000
  0.0000000000000000  0.0000000000000000  0.0000000000000000
  0.0000000000000000  0.0000000000000000  0.0000000000000000
  0.0000000000000000  0.0000000000000000  0.0000000000000000
  0.0000000000000000  0.0000000000000000  0.0000000000000000
  0.0000000000000000  0.0000000000000000  0.0000000000000000
  0.0000000000000000  0.0000000000000000  0.0000000000000000
  0.0000000000000000  0.0000000000000000  0.0000000000000000
  0.0000000000000000  0.0000000000000000  0.0000000000000000
  0.0000000000000000  0.0000000000000000  0.0000000000000000
  0.0000000000000000  0.0000000000000000  0.0000000000000000
  0.0000000000000000  0.0000000000000000  0.0000000000000000
  0.0000000000000000  0.0000000000000000  0.0000000000000000
  0.0000000000000000  0.0000000000000000  0.0000000000000000
  0.0000000000000000  0.0000000000000000  0.0000000000000000
  0.0000000000000000  0.0000000000000000  0.0000000000000000
  0.0000000000000000  0.0000000000000000  0.0000000000000000
  0.0000000000000000  0.0000000000000000  0.0000000000000000
  0.0000000000000000  0.0000000000000000  0.0000000000000000
