C  H  O 
 1.0000000000000000
    15.0000000000000000    0.0000000000000000    0.0000000000000000
     0.0000000000000000   15.0000000000000000    0.0000000000000000
     0.0000000000000000    0.0000000000000000   15.0000000000000000
 C   H   O  
   1   3   1
Direct
  0.4828753462451588  0.5000000000000000  0.4526666666666667
  0.5513739612645238  0.5000000000000000  0.4769232984376540
  0.4486260387354764  0.5593215407308204  0.4769232984376540
  0.4486260387354763  0.4406784592691796  0.4769232984376540
  0.4828753462451588  0.5000000000000000  0.5473333333333333
