Pd                                      
    1.000000000000000     
    11.0046904376558210    0.0000000000000000    0.0000000000000000
     5.5023452188279105    9.5303414797936323    0.0000000000000000
     0.0000000000000000    0.0000000000000000   28.9852921165140174
   Pd
    80
Selective dynamics
Direct
  0.9166666666666643  0.1666666666666643  0.0517503840903260   F   F   F
  0.1666666672067077  0.6666666805987780  0.2838132947112429   T   T   T
  0.9166666679607031  0.6666666736637521  0.2838132942012549   T   T   T
  0.6666666691905645  0.4166666688682392  0.2838132955732015   T   T   T
  0.4166666760191167  0.4166666673773057  0.2838132901107611   T   T   T
  0.1666666658331089  0.4166666718333465  0.2838132821028588   T   T   T
  0.9166666688191745  0.4166666674154060  0.2838132929392564   T   T   T
  0.6666666697141772  0.1666666736711121  0.2838132935676520   T   T   T
  0.4166666627764475  0.6666666688001829  0.2838132952039678   T   T   T
  0.4166666772050659  0.1666666656148338  0.2838132878602794   T   T   T
  0.9166666679999731  0.1666666710964099  0.2838132973746483   T   T   T
  0.8333333319652665  0.8333333339199848  0.2065296875582983   T   T   T
  0.5833333319656152  0.8333333369546848  0.2065296882804142   T   T   T
  0.3333333355314324  0.8333333317480460  0.2065296897328157   T   T   T
  0.0833333364152873  0.8333333294472842  0.2065296901984858   T   T   T
  0.8333333326460300  0.5833333321224536  0.2065296883270461   T   T   T
  0.5833333304743944  0.5833333337041083  0.2065296882573833   T   T   T
  0.1666666658571848  0.1666666644528315  0.2838132903324887   T   T   T
  0.3333333366587992  0.5833333319788028  0.2065296896877602   T   T   T
  0.6666666743229391  0.6666666667153605  0.2838132908095247   T   T   T
  0.1666666730218472  0.9166666649643905  0.2838133005330043   T   T   T
  0.2500000025310002  0.7500000045330677  0.3621394975199968   T   T   T
  0.9999999998749382  0.7500000059951755  0.3621394955012099   T   T   T
  0.7500000054794184  0.5000000041116470  0.3621394821256329   T   T   T
  0.5000000062607945  0.5000000048636078  0.3621394926887532   T   T   T
  0.2500000014459919  0.5000000075940220  0.3621394810786659   T   T   T
  0.9999999956823742  0.5000000084349283  0.3621394879606131   T   T   T
  0.7500000053997512  0.2500000046751201  0.3621394926195769   T   T   T
  0.9166666745227119  0.9166666655473925  0.2838132952127220   T   T   T
  0.5000000084286832  0.2500000000239314  0.3621395019852609   T   T   T
  0.0000000004151883  0.2500000045767607  0.3621394970454455   T   T   T
  0.7500000061154926  0.0000000004803502  0.3621394745199416   T   T   T
  0.5000000052102642  0.0000000011057444  0.3621394853598023   T   T   T
  0.2500000037540419  0.0000000041819223  0.3621394835661745   T   T   T
  0.0000000029375904  0.0000000023074306  0.3621394821564493   T   T   T
  0.6666666682036992  0.9166666677729571  0.2838132925446772   T   T   T
  0.4166666647883725  0.9166666759712258  0.2838132920868983   T   T   T
  0.2500000026784224  0.2499999995300987  0.3621394813784662   T   T   T
  0.0833333390272329  0.5833333278087238  0.2065296907213037   T   T   T
  0.8333333339154142  0.3333333343379797  0.2065296886705972   T   T   T
  0.5833333301449032  0.3333333359897903  0.2065296883367803   T   T   T
  0.0000000000000000  0.0000000000000000  0.1292491037892347   F   F   F
  0.6666666666666643  0.9166666666666643  0.0517503840903260   F   F   F
  0.4166666666666643  0.9166666666666643  0.0517503840903260   F   F   F
  0.1666666666666643  0.9166666666666643  0.0517503840903260   F   F   F
  0.9166666666666643  0.9166666666666643  0.0517503840903260   F   F   F
  0.6666666666666643  0.6666666666666643  0.0517503840903260   F   F   F
  0.4166666666666643  0.6666666666666643  0.0517503840903260   F   F   F
  0.2500000000000000  0.0000000000000000  0.1292491037892347   F   F   F
  0.1666666666666643  0.6666666666666643  0.0517503840903260   F   F   F
  0.6666666666666643  0.4166666666666643  0.0517503840903260   F   F   F
  0.4166666666666643  0.4166666666666643  0.0517503840903260   F   F   F
  0.1666666666666643  0.4166666666666643  0.0517503840903260   F   F   F
  0.9166666666666643  0.4166666666666643  0.0517503840903260   F   F   F
  0.6666666666666643  0.1666666666666643  0.0517503840903260   F   F   F
  0.4166666666666643  0.1666666666666643  0.0517503840903260   F   F   F
  0.1666666666666643  0.1666666666666643  0.0517503840903260   F   F   F
  0.9166666666666643  0.6666666666666643  0.0517503840903260   F   F   F
  0.5000000000000000  0.0000000000000000  0.1292491037892347   F   F   F
  0.7500000000000000  0.0000000000000000  0.1292491037892347   F   F   F
  0.0000000000000000  0.2500000000000000  0.1292491037892347   F   F   F
  0.3333333311320357  0.3333333341052336  0.2065296894036087   T   T   T
  0.0833333377527024  0.3333333336383227  0.2065296901576772   T   T   T
  0.8333333307367489  0.0833333373020479  0.2065296859727836   T   T   T
  0.5833333283779859  0.0833333352182329  0.2065296864163471   T   T   T
  0.3333333349139315  0.0833333353824253  0.2065296857939761   T   T   T
  0.0833333360728698  0.0833333367356209  0.2065296888344761   T   T   T
  0.7500000000000000  0.7500000000000000  0.1292491037892347   F   F   F
  0.5000000000000000  0.7500000000000000  0.1292491037892347   F   F   F
  0.2500000000000000  0.7500000000000000  0.1292491037892347   F   F   F
  0.0000000000000000  0.7500000000000000  0.1292491037892347   F   F   F
  0.7500000000000000  0.5000000000000000  0.1292491037892347   F   F   F
  0.5000000000000000  0.5000000000000000  0.1292491037892347   F   F   F
  0.2500000000000000  0.5000000000000000  0.1292491037892347   F   F   F
  0.0000000000000000  0.5000000000000000  0.1292491037892347   F   F   F
  0.7500000000000000  0.2500000000000000  0.1292491037892347   F   F   F
  0.5000000000000000  0.2500000000000000  0.1292491037892347   F   F   F
  0.2500000000000000  0.2500000000000000  0.1292491037892347   F   F   F
  0.5000000067825424  0.7500000028134205  0.3621394812799508   T   T   T
  0.7500000059208638  0.7500000007350927  0.3621394871038939   T   T   T
 
  0.00000000E+00  0.00000000E+00  0.00000000E+00
  0.00000000E+00  0.00000000E+00  0.00000000E+00
  0.00000000E+00  0.00000000E+00  0.00000000E+00
  0.00000000E+00  0.00000000E+00  0.00000000E+00
  0.00000000E+00  0.00000000E+00  0.00000000E+00
  0.00000000E+00  0.00000000E+00  0.00000000E+00
  0.00000000E+00  0.00000000E+00  0.00000000E+00
  0.00000000E+00  0.00000000E+00  0.00000000E+00
  0.00000000E+00  0.00000000E+00  0.00000000E+00
  0.00000000E+00  0.00000000E+00  0.00000000E+00
  0.00000000E+00  0.00000000E+00  0.00000000E+00
  0.00000000E+00  0.00000000E+00  0.00000000E+00
  0.00000000E+00  0.00000000E+00  0.00000000E+00
  0.00000000E+00  0.00000000E+00  0.00000000E+00
  0.00000000E+00  0.00000000E+00  0.00000000E+00
  0.00000000E+00  0.00000000E+00  0.00000000E+00
  0.00000000E+00  0.00000000E+00  0.00000000E+00
  0.00000000E+00  0.00000000E+00  0.00000000E+00
  0.00000000E+00  0.00000000E+00  0.00000000E+00
  0.00000000E+00  0.00000000E+00  0.00000000E+00
  0.00000000E+00  0.00000000E+00  0.00000000E+00
  0.00000000E+00  0.00000000E+00  0.00000000E+00
  0.00000000E+00  0.00000000E+00  0.00000000E+00
  0.00000000E+00  0.00000000E+00  0.00000000E+00
  0.00000000E+00  0.00000000E+00  0.00000000E+00
  0.00000000E+00  0.00000000E+00  0.00000000E+00
  0.00000000E+00  0.00000000E+00  0.00000000E+00
  0.00000000E+00  0.00000000E+00  0.00000000E+00
  0.00000000E+00  0.00000000E+00  0.00000000E+00
  0.00000000E+00  0.00000000E+00  0.00000000E+00
  0.00000000E+00  0.00000000E+00  0.00000000E+00
  0.00000000E+00  0.00000000E+00  0.00000000E+00
  0.00000000E+00  0.00000000E+00  0.00000000E+00
  0.00000000E+00  0.00000000E+00  0.00000000E+00
  0.00000000E+00  0.00000000E+00  0.00000000E+00
  0.00000000E+00  0.00000000E+00  0.00000000E+00
  0.00000000E+00  0.00000000E+00  0.00000000E+00
  0.00000000E+00  0.00000000E+00  0.00000000E+00
  0.00000000E+00  0.00000000E+00  0.00000000E+00
  0.00000000E+00  0.00000000E+00  0.00000000E+00
  0.00000000E+00  0.00000000E+00  0.00000000E+00
  0.00000000E+00  0.00000000E+00  0.00000000E+00
  0.00000000E+00  0.00000000E+00  0.00000000E+00
  0.00000000E+00  0.00000000E+00  0.00000000E+00
  0.00000000E+00  0.00000000E+00  0.00000000E+00
  0.00000000E+00  0.00000000E+00  0.00000000E+00
  0.00000000E+00  0.00000000E+00  0.00000000E+00
  0.00000000E+00  0.00000000E+00  0.00000000E+00
  0.00000000E+00  0.00000000E+00  0.00000000E+00
  0.00000000E+00  0.00000000E+00  0.00000000E+00
  0.00000000E+00  0.00000000E+00  0.00000000E+00
  0.00000000E+00  0.00000000E+00  0.00000000E+00
  0.00000000E+00  0.00000000E+00  0.00000000E+00
  0.00000000E+00  0.00000000E+00  0.00000000E+00
  0.00000000E+00  0.00000000E+00  0.00000000E+00
  0.00000000E+00  0.00000000E+00  0.00000000E+00
  0.00000000E+00  0.00000000E+00  0.00000000E+00
  0.00000000E+00  0.00000000E+00  0.00000000E+00
  0.00000000E+00  0.00000000E+00  0.00000000E+00
  0.00000000E+00  0.00000000E+00  0.00000000E+00
  0.00000000E+00  0.00000000E+00  0.00000000E+00
  0.00000000E+00  0.00000000E+00  0.00000000E+00
  0.00000000E+00  0.00000000E+00  0.00000000E+00
  0.00000000E+00  0.00000000E+00  0.00000000E+00
  0.00000000E+00  0.00000000E+00  0.00000000E+00
  0.00000000E+00  0.00000000E+00  0.00000000E+00
  0.00000000E+00  0.00000000E+00  0.00000000E+00
  0.00000000E+00  0.00000000E+00  0.00000000E+00
  0.00000000E+00  0.00000000E+00  0.00000000E+00
  0.00000000E+00  0.00000000E+00  0.00000000E+00
  0.00000000E+00  0.00000000E+00  0.00000000E+00
  0.00000000E+00  0.00000000E+00  0.00000000E+00
  0.00000000E+00  0.00000000E+00  0.00000000E+00
  0.00000000E+00  0.00000000E+00  0.00000000E+00
  0.00000000E+00  0.00000000E+00  0.00000000E+00
  0.00000000E+00  0.00000000E+00  0.00000000E+00
  0.00000000E+00  0.00000000E+00  0.00000000E+00
  0.00000000E+00  0.00000000E+00  0.00000000E+00
  0.00000000E+00  0.00000000E+00  0.00000000E+00
  0.00000000E+00  0.00000000E+00  0.00000000E+00
