Pd
 1.0000000000000000
    11.0046904376558210    0.0000000000000000    0.0000000000000000
     5.5023452188279105    9.5303414797936323    0.0000000000000000
     0.0000000000000000    0.0000000000000000   28.9852921165140174
 Pd 
  80
Selective dynamics
Cartesian
 -0.0000000000000000  1.5883902466322719  1.5000000000000000   F   F   F
  5.5023452188279105  6.3535609865290876  8.2389690873855148   T   T   T
  2.7511726094139553  6.3535609865290876  8.2389690873855148   T   T   T
  9.6291041329488429  3.9709756165806800  8.2389690873855148   T   T   T
  6.8779315235348886  3.9709756165806800  8.2389690873855148   T   T   T
  4.1267589141209324  3.9709756165806800  8.2389690873855148   T   T   T
  1.3755863047069774  3.9709756165806800  8.2389690873855148   T   T   T
  8.2535178282418649  1.5883902466322719  8.2389690873855148   T   T   T
  8.2535178282418666  6.3535609865290876  8.2389690873855148   T   T   T
  5.5023452188279114  1.5883902466322719  8.2389690873855148   T   T   T
 -0.0000000000000000  1.5883902466322719  8.2389690873855148   T   T   T
 13.7558630470697771  7.9419512331613609  5.9926460582570096   T   T   T
 11.0046904376558210  7.9419512331613609  5.9926460582570096   T   T   T
  8.2535178282418666  7.9419512331613609  5.9926460582570096   T   T   T
  5.5023452188279105  7.9419512331613609  5.9926460582570096   T   T   T
 12.3802767423628008  5.5593658632129523  5.9926460582570096   T   T   T
  9.6291041329488447  5.5593658632129523  5.9926460582570096   T   T   T
  2.7511726094139553  1.5883902466322719  8.2389690873855148   T   T   T
  6.8779315235348886  5.5593658632129523  5.9926460582570096   T   T   T
 11.0046904376558210  6.3535609865290876  8.2389690873855148   T   T   T
  6.8779315235348877  8.7361463564774962  8.2389690873855148   T   T   T
  6.8779315235348886  7.1477561098452238 10.4852921165140192   T   T   T
  4.1267589141209324  7.1477561098452238 10.4852921165140192   T   T   T
 11.0046904376558210  4.7651707398968162 10.4852921165140192   T   T   T
  8.2535178282418649  4.7651707398968162 10.4852921165140192   T   T   T
  5.5023452188279105  4.7651707398968162 10.4852921165140192   T   T   T
  2.7511726094139553  4.7651707398968162 10.4852921165140192   T   T   T
  9.6291041329488429  2.3825853699484081 10.4852921165140192   T   T   T
  4.1267589141209324  8.7361463564774962  8.2389690873855148   T   T   T
  6.8779315235348886  2.3825853699484081 10.4852921165140192   T   T   T
  1.3755863047069776  2.3825853699484081 10.4852921165140192   T   T   T
  8.2535178282418649  0.0000000000000000 10.4852921165140192   T   T   T
  5.5023452188279105  0.0000000000000000 10.4852921165140192   T   T   T
  2.7511726094139553  0.0000000000000000 10.4852921165140192   T   T   T
  0.0000000000000000  0.0000000000000000 10.4852921165140192   T   T   T
 12.3802767423627973  8.7361463564774962  8.2389690873855148   T   T   T
  9.6291041329488429  8.7361463564774962  8.2389690873855148   T   T   T
  4.1267589141209324  2.3825853699484081 10.4852921165140192   T   T   T
  4.1267589141209333  5.5593658632129523  5.9926460582570096   T   T   T
 11.0046904376558228  3.1767804932645438  5.9926460582570096   T   T   T
  8.2535178282418666  3.1767804932645438  5.9926460582570096   T   T   T
  0.0000000000000000  0.0000000000000000  3.7463230291285048   F   F   F
 12.3802767423627973  8.7361463564774962  1.5000000000000000   F   F   F
  9.6291041329488429  8.7361463564774962  1.5000000000000000   F   F   F
  6.8779315235348877  8.7361463564774962  1.5000000000000000   F   F   F
  4.1267589141209324  8.7361463564774962  1.5000000000000000   F   F   F
 11.0046904376558210  6.3535609865290876  1.5000000000000000   F   F   F
  8.2535178282418666  6.3535609865290876  1.5000000000000000   F   F   F
  2.7511726094139553  0.0000000000000000  3.7463230291285048   F   F   F
  5.5023452188279105  6.3535609865290876  1.5000000000000000   F   F   F
  9.6291041329488429  3.9709756165806800  1.5000000000000000   F   F   F
  6.8779315235348886  3.9709756165806800  1.5000000000000000   F   F   F
  4.1267589141209324  3.9709756165806800  1.5000000000000000   F   F   F
  1.3755863047069774  3.9709756165806800  1.5000000000000000   F   F   F
  8.2535178282418649  1.5883902466322719  1.5000000000000000   F   F   F
  5.5023452188279114  1.5883902466322719  1.5000000000000000   F   F   F
  2.7511726094139553  1.5883902466322719  1.5000000000000000   F   F   F
  2.7511726094139553  6.3535609865290876  1.5000000000000000   F   F   F
  5.5023452188279105  0.0000000000000000  3.7463230291285048   F   F   F
  8.2535178282418649  0.0000000000000000  3.7463230291285048   F   F   F
  1.3755863047069776  2.3825853699484081  3.7463230291285048   F   F   F
  5.5023452188279105  3.1767804932645438  5.9926460582570096   T   T   T
  2.7511726094139553  3.1767804932645438  5.9926460582570096   T   T   T
  9.6291041329488447  0.7941951233161360  5.9926460582570096   T   T   T
  6.8779315235348886  0.7941951233161360  5.9926460582570096   T   T   T
  4.1267589141209324  0.7941951233161360  5.9926460582570096   T   T   T
  1.3755863047069776  0.7941951233161360  5.9926460582570096   T   T   T
 12.3802767423627973  7.1477561098452238  3.7463230291285048   F   F   F
  9.6291041329488429  7.1477561098452238  3.7463230291285048   F   F   F
  6.8779315235348886  7.1477561098452238  3.7463230291285048   F   F   F
  4.1267589141209324  7.1477561098452238  3.7463230291285048   F   F   F
 11.0046904376558210  4.7651707398968162  3.7463230291285048   F   F   F
  8.2535178282418649  4.7651707398968162  3.7463230291285048   F   F   F
  5.5023452188279105  4.7651707398968162  3.7463230291285048   F   F   F
  2.7511726094139553  4.7651707398968162  3.7463230291285048   F   F   F
  9.6291041329488429  2.3825853699484081  3.7463230291285048   F   F   F
  6.8779315235348886  2.3825853699484081  3.7463230291285048   F   F   F
  4.1267589141209324  2.3825853699484081  3.7463230291285048   F   F   F
  9.6291041329488429  7.1477561098452238 10.4852921165140192   T   T   T
 12.3802767423627973  7.1477561098452238 10.4852921165140192   T   T   T
