C  O  Pd
 1.0000000000000000
    11.0046904376558210    0.0000000000000000    0.0000000000000000
     0.0000000000000000   11.0046904376558210    0.0000000000000000
     0.0000000000000000    0.0000000000000000   27.7814912333251840
 C   O   Pd 
   1   1  80
Selective dynamics
Direct
  0.3728219805081844  0.2281784290757047  0.3924641992392038   T   T   T
  0.3727622608877517  0.2108518795715160  0.4346887116250908   T   T   T
  0.5002688562283940  0.7495906658105633  0.3385168151405522   T   T   T
  0.0000000000000000  0.5000000000000000  0.0539927820073487   F   F   F
  0.2500000000000000  0.0000000000000000  0.0539927820073487   F   F   F
  0.5000000000000000  0.0000000000000000  0.0539927820073487   F   F   F
  0.7500000000000000  0.0000000000000000  0.0539927820073487   F   F   F
  0.0000000000000000  0.2500000000000000  0.0539927820073487   F   F   F
  0.2500000000000000  0.2500000000000000  0.0539927820073487   F   F   F
  0.5000000000000000  0.2500000000000000  0.0539927820073487   F   F   F
  0.6250000000000001  0.1250000000000000  0.1240168419828507   F   F   F
  0.7500000000000000  0.2500000000000000  0.0539927820073487   F   F   F
  0.3750000000000000  0.1250000000000000  0.1240168419828507   F   F   F
  0.5000000000000000  0.5000000000000000  0.0539927820073487   F   F   F
  0.7500000000000000  0.5000000000000000  0.0539927820073487   F   F   F
  0.0000000000000000  0.7500000000000000  0.0539927820073487   F   F   F
  0.2500000000000000  0.7500000000000000  0.0539927820073487   F   F   F
  0.5000000000000000  0.7500000000000000  0.0539927820073487   F   F   F
  0.7500000000000000  0.7500000000000000  0.0539927820073487   F   F   F
  0.2500000000000000  0.5000000000000000  0.0539927820073487   F   F   F
  0.7500522864922609  0.7501352424992829  0.3386845237475646   T   T   T
  0.8750000000000000  0.1250000000000000  0.1240168419828507   F   F   F
  0.2499319391416542  0.2499875220393827  0.1957398712148207   T   T   T
  0.3750000000000000  0.3750000000000000  0.1240168419828507   F   F   F
  0.6250000000000001  0.3750000000000000  0.1240168419828507   F   F   F
  0.8750000000000000  0.3750000000000000  0.1240168419828507   F   F   F
  0.1250000000000000  0.6250000000000001  0.1240168419828507   F   F   F
  0.3750000000000000  0.6250000000000001  0.1240168419828507   F   F   F
  0.6250000000000001  0.6250000000000001  0.1240168419828507   F   F   F
  0.8750000000000000  0.6250000000000001  0.1240168419828507   F   F   F
  0.1250000000000000  0.1250000000000000  0.1240168419828507   F   F   F
  0.1250000000000000  0.8750000000000000  0.1240168419828507   F   F   F
  0.6250000000000001  0.8750000000000000  0.1240168419828507   F   F   F
  0.8750000000000000  0.8750000000000000  0.1240168419828507   F   F   F
 -0.0001964270145439 -0.0001333044280693  0.1954113213616828   F   F   F
  0.2500266258041674  0.0003099522900042  0.1954973593222124   F   F   F
  0.5002771040942252  0.0004502326819657  0.1955536180075193   T   T   T
  0.7500348486693063  0.0000188568292224  0.1954355449340523   F   F   F
 -0.0003738081181011  0.2500124121913289  0.1957636257501505   T   T   T
  0.3750000000000000  0.8750000000000000  0.1240168419828507   F   F   F
  0.1250000000000000  0.3750000000000000  0.1240168419828507   F   F   F
  0.0000000000000000  0.0000000000000000  0.0539927820073487   F   F   F
 -0.0002743676272962  0.5000232163921694  0.1954346466210326   F   F   F
  0.5003609053946251  0.4993010649807302  0.1955568752973138   T   T   T
  0.7500360650308572  0.4998380799845517  0.1954534077984493   F   F   F
  0.0003063265308799  0.7499632517557239  0.1954604761839455   F   F   F
  0.2501639666968380  0.7499259238175365  0.1954292977247030   F   F   F
  0.5003383960780502  0.7498377606812818  0.1954857163006286   F   F   F
  0.7501600578339880  0.7499337545061622  0.1955170949425915   T   T   T
  0.1253071607730223  0.1255504530671091  0.2675492926274657   T   T   T
  0.3746185276954047  0.1250902478468612  0.2675163730454448   T   T   T
  0.6238767353548088  0.1256513099617183  0.2678045959977414   T   T   T
  0.8744542079644524  0.1249117270170279  0.2671270272822816   T   T   T
  0.1255220903312234  0.3740064378711903  0.2677473064184968   T   T   T
  0.3745907600519975  0.3744868821281234  0.2676573752736578   T   T   T
  0.6236064949085597  0.3739440499510813  0.2679785829987604   T   T   T
  0.8744630610158124  0.3750240183039686  0.2672098659650231   T   T   T
  0.1250642173188054  0.6245289617808014  0.2669418316540755   T   T   T
  0.3754204737905990  0.6244027116167006  0.2667166655502448   T   T   T
  0.6256360151848178  0.6243490837101373  0.2669932730452636   T   T   T
  0.2499309956012559  0.4995440490039517  0.1955012860876703   T   T   T
  0.8753494478650380  0.6249795335652374  0.2670197022669942   T   T   T
  0.3753694220268562  0.8749368518090996  0.2667140207279636   T   T   T
  0.2464245510415770  0.2493346037652675  0.3425675123588565   T   T   T
  0.6255176589176542  0.8752894185332424  0.2669444508671906   T   T   T
  0.8753483594673173  0.8748206635197568  0.2669924086177413   T   T   T
  0.0005126612049867 -0.0001996824994616  0.3387426649596894   T   T   T
  0.2504276790826996 -0.0027502078859728  0.3387016657371025   T   T   T
  0.5007316280036426 -0.0030396747399202  0.3388566863424632   T   T   T
  0.7507476054233423 -0.0003009649298596  0.3389420021729562   T   T   T
 -0.0015947782327196  0.2497109489099032  0.3388931341391785   T   T   T
  0.4995703352677144  0.2491854444665601  0.3426028033671952   T   T   T
  0.1250875623491689  0.8750941072374816  0.2669410220338710   T   T   T
  0.7487302832206902  0.2499374539493845  0.3393023169260492   T   T   T
  0.0007322153640018  0.4999060820693389  0.3388304588045510   T   T   T
  0.2506544155282445  0.5018116412628698  0.3387306516262448   T   T   T
  0.5005342233663677  0.5020283254736978  0.3388937489587983   T   T   T
  0.7507089152285764  0.5003547829252005  0.3390380196784725   T   T   T
  0.0002896441384811  0.7498639688506967  0.3387662900049213   T   T   T
  0.2500999551127644  0.7497203892603759  0.3385756239060002   T   T   T
  0.7490738635132531  0.2500065950470783  0.1957596063974487   T   T   T
  0.4995606511063649  0.2499245402745454  0.1958132452714408   T   T   T
Cartesian
  0.0000000000000000  0.0000000000000000  0.0000000000000000
  0.0000000000000000  0.0000000000000000  0.0000000000000000
  0.0000000000000000  0.0000000000000000  0.0000000000000000
  0.0000000000000000  0.0000000000000000  0.0000000000000000
  0.0000000000000000  0.0000000000000000  0.0000000000000000
  0.0000000000000000  0.0000000000000000  0.0000000000000000
  0.0000000000000000  0.0000000000000000  0.0000000000000000
  0.0000000000000000  0.0000000000000000  0.0000000000000000
  0.0000000000000000  0.0000000000000000  0.0000000000000000
  0.0000000000000000  0.0000000000000000  0.0000000000000000
  0.0000000000000000  0.0000000000000000  0.0000000000000000
  0.0000000000000000  0.0000000000000000  0.0000000000000000
  0.0000000000000000  0.0000000000000000  0.0000000000000000
  0.0000000000000000  0.0000000000000000  0.0000000000000000
  0.0000000000000000  0.0000000000000000  0.0000000000000000
  0.0000000000000000  0.0000000000000000  0.0000000000000000
  0.0000000000000000  0.0000000000000000  0.0000000000000000
  0.0000000000000000  0.0000000000000000  0.0000000000000000
  0.0000000000000000  0.0000000000000000  0.0000000000000000
  0.0000000000000000  0.0000000000000000  0.0000000000000000
  0.0000000000000000  0.0000000000000000  0.0000000000000000
  0.0000000000000000  0.0000000000000000  0.0000000000000000
  0.0000000000000000  0.0000000000000000  0.0000000000000000
  0.0000000000000000  0.0000000000000000  0.0000000000000000
  0.0000000000000000  0.0000000000000000  0.0000000000000000
  0.0000000000000000  0.0000000000000000  0.0000000000000000
  0.0000000000000000  0.0000000000000000  0.0000000000000000
  0.0000000000000000  0.0000000000000000  0.0000000000000000
  0.0000000000000000  0.0000000000000000  0.0000000000000000
  0.0000000000000000  0.0000000000000000  0.0000000000000000
  0.0000000000000000  0.0000000000000000  0.0000000000000000
  0.0000000000000000  0.0000000000000000  0.0000000000000000
  0.0000000000000000  0.0000000000000000  0.0000000000000000
  0.0000000000000000  0.0000000000000000  0.0000000000000000
  0.0000000000000000  0.0000000000000000  0.0000000000000000
  0.0000000000000000  0.0000000000000000  0.0000000000000000
  0.0000000000000000  0.0000000000000000  0.0000000000000000
  0.0000000000000000  0.0000000000000000  0.0000000000000000
  0.0000000000000000  0.0000000000000000  0.0000000000000000
  0.0000000000000000  0.0000000000000000  0.0000000000000000
  0.0000000000000000  0.0000000000000000  0.0000000000000000
  0.0000000000000000  0.0000000000000000  0.0000000000000000
  0.0000000000000000  0.0000000000000000  0.0000000000000000
  0.0000000000000000  0.0000000000000000  0.0000000000000000
  0.0000000000000000  0.0000000000000000  0.0000000000000000
  0.0000000000000000  0.0000000000000000  0.0000000000000000
  0.0000000000000000  0.0000000000000000  0.0000000000000000
  0.0000000000000000  0.0000000000000000  0.0000000000000000
  0.0000000000000000  0.0000000000000000  0.0000000000000000
  0.0000000000000000  0.0000000000000000  0.0000000000000000
  0.0000000000000000  0.0000000000000000  0.0000000000000000
  0.0000000000000000  0.0000000000000000  0.0000000000000000
  0.0000000000000000  0.0000000000000000  0.0000000000000000
  0.0000000000000000  0.0000000000000000  0.0000000000000000
  0.0000000000000000  0.0000000000000000  0.0000000000000000
  0.0000000000000000  0.0000000000000000  0.0000000000000000
  0.0000000000000000  0.0000000000000000  0.0000000000000000
  0.0000000000000000  0.0000000000000000  0.0000000000000000
  0.0000000000000000  0.0000000000000000  0.0000000000000000
  0.0000000000000000  0.0000000000000000  0.0000000000000000
  0.0000000000000000  0.0000000000000000  0.0000000000000000
  0.0000000000000000  0.0000000000000000  0.0000000000000000
  0.0000000000000000  0.0000000000000000  0.0000000000000000
  0.0000000000000000  0.0000000000000000  0.0000000000000000
  0.0000000000000000  0.0000000000000000  0.0000000000000000
  0.0000000000000000  0.0000000000000000  0.0000000000000000
  0.0000000000000000  0.0000000000000000  0.0000000000000000
  0.0000000000000000  0.0000000000000000  0.0000000000000000
  0.0000000000000000  0.0000000000000000  0.0000000000000000
  0.0000000000000000  0.0000000000000000  0.0000000000000000
  0.0000000000000000  0.0000000000000000  0.0000000000000000
  0.0000000000000000  0.0000000000000000  0.0000000000000000
  0.0000000000000000  0.0000000000000000  0.0000000000000000
  0.0000000000000000  0.0000000000000000  0.0000000000000000
  0.0000000000000000  0.0000000000000000  0.0000000000000000
  0.0000000000000000  0.0000000000000000  0.0000000000000000
  0.0000000000000000  0.0000000000000000  0.0000000000000000
  0.0000000000000000  0.0000000000000000  0.0000000000000000
  0.0000000000000000  0.0000000000000000  0.0000000000000000
  0.0000000000000000  0.0000000000000000  0.0000000000000000
  0.0000000000000000  0.0000000000000000  0.0000000000000000
  0.0000000000000000  0.0000000000000000  0.0000000000000000
