C  H  O  Pd
 1.0000000000000000
    12.2143708368485502    0.0000000000000000    0.0000000000000007
     0.0000000000000017   10.8116922467861709    0.0000000000000007
     0.0000000000000000    0.0000000000000000   30.6875744822424821
 C   H   O   Pd 
   2   3  66  64
Selective dynamics
Direct
  0.1303223026982143  0.1236837383541212  0.4787373402767618   T   T   T
  0.1168719173455403  0.4995547368678206  0.4718026222194062   T   T   T
  0.0622618099029702  0.1846965970156382  0.4682216065423920   T   T   T
  0.1211050158103741  0.1041974131714031  0.5140819861034075   T   T   T
  0.2092493316919426  0.1718963797853222  0.4731385837167584   T   T   T
  0.0000001489023768  0.6253641828117400  0.1990385236877962   F   F   F
  1.0029242507693532  0.3786932447832499  0.3962486954419303   T   T   T
  0.0000007785774361  0.8746366631057728  0.1990387117510663   F   F   F
 -0.0003006892581772  0.1226930485568316  0.3956192671021937   T   T   T
  0.2525419944643593  0.3755995937639929  0.2984152356246835   T   T   T
  0.0000000000000000  0.6250000000000000  0.0986326357059468   F   F   F
  0.7531916883621291  0.6207616113171154  0.3961747781442989   T   T   T
  0.0018077834604498  0.8754885369690835  0.2989204446205534   T   T   T
  0.2517695389312337  0.1255705211977085  0.2989131328635183   T   T   T
  0.7525122652078530  0.3748890071773440  0.2984946354797399   T   T   T
  0.5016439010471079  0.8749691709865453  0.2986396541831938   T   T   T
  0.5026296578615279  0.6254688787322752  0.2986458091873559   T   T   T
  1.0010337854094409  0.8790632655604921  0.3960734587215933   T   T   T
  0.0014742960369554  0.1255327185408747  0.2989175000514258   T   T   T
  1.0026280228367637  0.3755896275939368  0.2983531062053086   T   T   T
  0.5018643436541456  0.8791376317789119  0.3964254002583177   T   T   T
  1.0030129505053895  0.6220355498741890  0.3958098074930666   T   T   T
  0.0000003667133454  0.1253639748692094  0.1990386316366852   F   F   F
  0.0000002712633380  0.3746360819220366  0.1990386009744299   F   F   F
  0.2500000000000000  0.3750000000000000  0.0986326357059468   F   F   F
 -0.0000000000000000  0.8750000000000001  0.0986326357059468   F   F   F
  0.2499998638177366  0.3746354513558036  0.1990391137478614   F   F   F
  0.2500000000000000  0.1250000000000000  0.0986326357059468   F   F   F
  0.2500003118916107  0.1253643742758414  0.1990388468832426   F   F   F
  0.0000000000000000  0.3750000000000000  0.0986326357059468   F   F   F
  0.0000000000000000  0.1250000000000000  0.0986326357059468   F   F   F
  0.0341448381232648  0.5177875264456860  0.4886746379558679   T   T   T
  0.1264250016800530  0.0050143122319175  0.4594058684853343   T   T   T
  0.0025815143510998  0.6253611208486214  0.2985297520988058   T   T   T
  0.5036136359202045  0.6208397457889095  0.3963141597220627   T   T   T
  0.2539580317308390  0.6228614005275829  0.3963247304546345   T   T   T
  0.7500000000000000  0.1250000000000000  0.0986326357059468   F   F   F
  0.2500000725690806  0.8746359244060554  0.1990388968624472   F   F   F
  0.2500000575081164  0.6253646356490544  0.1990388586176256   F   F   F
  0.2517230267754104  0.8753495937148540  0.2989493106147350   T   T   T
  0.2524630294474618  0.6253132934448979  0.2985385103151444   T   T   T
  0.2526777324314126  0.8792638019099313  0.3959819980504429   T   T   T
  0.7518073509506839  0.8789458008833680  0.3961698630767314   T   T   T
  0.2500000000000000  0.6250000000000000  0.0986326357059468   F   F   F
  0.5000000000000000  0.3750000000000000  0.0986326357059468   F   F   F
  0.5021662637316786  0.1207670036858137  0.3963694848945098   T   T   T
  0.5031503705011806  0.3795395023998602  0.3962712875305656   T   T   T
  0.5016734967114972  0.1255096968873519  0.2986833583891327   T   T   T
  0.5024549962158907  0.3747765535669806  0.2986013664084650   T   T   T
  0.4999998368048840  0.1253637532206347  0.1990388322615649   F   F   F
  0.7500000000000000  0.3750000000000000  0.0986326357059468   F   F   F
  0.5000000000000000  0.1250000000000000  0.0986326357059468   F   F   F
  0.2500000000000000  0.8750000000000001  0.0986326357059468   F   F   F
  0.4999999938080711  0.3746360868658646  0.1990385922315757   F   F   F
  0.5000000000000000  0.8750000000000001  0.0986326357059468   F   F   F
  0.2539491145736325  0.1225971166679765  0.3955882845665435   T   T   T
  0.7500000114023815  0.1253633646095497  0.1990386859845709   F   F   F
  0.7500004982174803  0.3746360905691121  0.1990382815073973   F   F   F
  0.2542978690479009  0.3783745279465633  0.3963107125646400   T   T   T
  0.7535365536389901  0.3794092108321966  0.3962641907892703   T   T   T
  0.7516358550171010  0.1205724507547608  0.3960207998104650   T   T   T
  0.7500000000000000  0.8750000000000001  0.0986326357059468   F   F   F
  0.7516566380028414  0.1253811235998278  0.2986313621047992   T   T   T
  0.7500002014178647  0.8746343896298040  0.1990386967425212   F   F   F
  0.7500002133337712  0.6253633161861426  0.1990388060063935   F   F   F
  0.7515547167880600  0.8749011069324584  0.2985012993614513   T   T   T
  0.7522450205589923  0.6252618573768053  0.2985248679803841   T   T   T
  0.5000001784867202  0.6253637522044813  0.1990389446145577   F   F   F
  0.4999995794704318  0.8746354974934157  0.1990386872989469   F   F   F
  0.7500000000000000  0.6250000000000000  0.0986326357059468   F   F   F
  0.5000000000000000  0.6250000000000000  0.0986326357059468   F   F   F
  0.0000000644614895  0.7499997055339565  0.1487767856559003   F   F   F
  0.5011317209981432  0.7501448398669991  0.2492478554256390   T   T   T
  0.1289025633978080  0.5005284545348316  0.3922754421895839   T   T   T
  0.6250000000000000  0.0000000000000000  0.0986326357059468   F   F   F
  0.3772797739203856  0.0000168224881148  0.3914149063134694   T   T   T
  0.2500002436688700  0.7499998371993483  0.1487767841964014   F   F   F
  0.2533729352992728  0.2511937965292651  0.3501123424055988   T   T   T
  0.2506249756298221  0.2500107454321051  0.2491717136914138   T   T   T
  0.2500000000000000  0.7500000000000000  0.0488797184302712   F   F   F
  0.3750000000000000  0.5000000000000000  0.0986326357059468   F   F   F
  0.5000000000000000  0.2500000000000000  0.0488797184302712   F   F   F
  0.5000000890861059  0.7499991063848873  0.1487764921061197   F   F   F
  0.6266133108695300  0.0002238004835361  0.2975619465149808   T   T   T
  0.6250000000000000  0.5000000000000000  0.0986326357059468   F   F   F
  0.5000000000000000  0.7500000000000000  0.0488797184302712   F   F   F
  0.0014740595329248  0.7503069468715119  0.2491975335891508   T   T   T
  0.6268379329630018  0.9996924629872090  0.3913792279732343   T   T   T
  0.5023882085907603  0.2501394828067968  0.3506634825987748   T   T   T
  0.1276069159201080  0.5004858280668820  0.2976997993808794   T   T   T
  0.5009966490587626  0.2500292342082870  0.2492386983700590   T   T   T
  1.0022763510412724  0.7507201205784448  0.3502268469599282   T   T   T
  0.6250011512513076  0.9999984342009582  0.1993176556340738   F   F   F
  0.5000000412290440  0.2500002002978380  0.1487764123606149   F   F   F
  0.1250000000000000  0.5000000000000000  0.0986326357059468   F   F   F
  0.0000000000000000  0.2500000000000000  0.0488797184302712   F   F   F
  0.3750013085010481  0.9999996425241101  0.1993178715196733   F   F   F
  0.1250005006673170  0.4999996619028680  0.1993179793341455   F   F   F
  0.3750004864510694  0.5000000253507203  0.1993181014519463   F   F   F
  0.0013799978444437  0.2499834360583914  0.2491466645949062   T   T   T
  0.2500001827845806  0.2500004790494265  0.1487770501254799   F   F   F
  0.7512098770628126  0.2499393378400529  0.2492006856226216   T   T   T
  0.7509651182653146  0.7500193496923812  0.2491798551062381   T   T   T
  0.1249992154568337  0.0000000621413549  0.1993179005561505   F   F   F
  0.7499999695802716  0.7499987873488344  0.1487766346932499   F   F   F
  0.8749990435797278  0.9999988729247118  0.1993176942245059   F   F   F
  0.7500000714258059  0.2500001333654533  0.1487767298788664   F   F   F
  0.8764556446807537  0.0002468867429950  0.2978046062052684   T   T   T
  0.1267760516735595  0.0017154434173893  0.3942690691935754   T   T   T
  0.8750000000000000  0.0000000000000000  0.0986326357059468   F   F   F
  0.7500000000000000  0.2500000000000000  0.0488797184302712   F   F   F
  0.1250000000000000  0.0000000000000000  0.0986326357059468   F   F   F
  0.0000000000000000  0.7500000000000000  0.0488797184302712   F   F   F
  0.8784546199100330  0.5004294563375156  0.3912971511348665   T   T   T
  0.6283770348705818  0.4999699346393380  0.3913356521871623   T   T   T
  0.8773698853465530  0.5003453206808391  0.2975180551923551   T   T   T
  0.2500000000000000  0.2500000000000000  0.0488797184302712   F   F   F
  0.0000001104490266  0.2500003692293262  0.1487770372582357   F   F   F
  0.7522168151950093  0.2502283439401757  0.3504944983189560   T   T   T
  0.2506957478867795  0.7503389344995615  0.2492162060513164   T   T   T
  0.3778148034692988  0.5003060703395593  0.2975972973886966   T   T   T
  0.3750000000000000  0.0000000000000000  0.0986326357059468   F   F   F
  0.2526885858502375  0.7505496297390059  0.3503315128006420   T   T   T
  0.3782322196114113  0.5005817540422258  0.3915253850578674   T   T   T
  0.6275018344266508  0.4999537673578776  0.2975143006793476   T   T   T
  0.1267345826653852  1.0005270807484214  0.2992587401473808   T   T   T
  0.6249997369785575  0.5000005243672183  0.1993177510521300   F   F   F
  1.0015349478258733  0.2512024430982641  0.3500693730595422   T   T   T
  0.8750000000000000  0.5000000000000000  0.0986326357059468   F   F   F
  0.7500000000000000  0.7500000000000000  0.0488797184302712   F   F   F
  0.8749998623887097  0.5000001886345932  0.1993177285951360   F   F   F
  0.8764560437790803  0.9997433303838990  0.3912594371209450   T   T   T
  0.5024963548220920  0.7501336074453401  0.3506881610999767   T   T   T
  0.3768464084542757  0.0003592828276280  0.2978299207750649   T   T   T
  0.7521752430065589  0.7499097433539010  0.3505000419814340   T   T   T
Cartesian
  0.0000000000000000  0.0000000000000000  0.0000000000000000
  0.0000000000000000  0.0000000000000000  0.0000000000000000
  0.0000000000000000  0.0000000000000000  0.0000000000000000
  0.0000000000000000  0.0000000000000000  0.0000000000000000
  0.0000000000000000  0.0000000000000000  0.0000000000000000
  0.0000000000000000  0.0000000000000000  0.0000000000000000
  0.0000000000000000  0.0000000000000000  0.0000000000000000
  0.0000000000000000  0.0000000000000000  0.0000000000000000
  0.0000000000000000  0.0000000000000000  0.0000000000000000
  0.0000000000000000  0.0000000000000000  0.0000000000000000
  0.0000000000000000  0.0000000000000000  0.0000000000000000
  0.0000000000000000  0.0000000000000000  0.0000000000000000
  0.0000000000000000  0.0000000000000000  0.0000000000000000
  0.0000000000000000  0.0000000000000000  0.0000000000000000
  0.0000000000000000  0.0000000000000000  0.0000000000000000
  0.0000000000000000  0.0000000000000000  0.0000000000000000
  0.0000000000000000  0.0000000000000000  0.0000000000000000
  0.0000000000000000  0.0000000000000000  0.0000000000000000
  0.0000000000000000  0.0000000000000000  0.0000000000000000
  0.0000000000000000  0.0000000000000000  0.0000000000000000
  0.0000000000000000  0.0000000000000000  0.0000000000000000
  0.0000000000000000  0.0000000000000000  0.0000000000000000
  0.0000000000000000  0.0000000000000000  0.0000000000000000
  0.0000000000000000  0.0000000000000000  0.0000000000000000
  0.0000000000000000  0.0000000000000000  0.0000000000000000
  0.0000000000000000  0.0000000000000000  0.0000000000000000
  0.0000000000000000  0.0000000000000000  0.0000000000000000
  0.0000000000000000  0.0000000000000000  0.0000000000000000
  0.0000000000000000  0.0000000000000000  0.0000000000000000
  0.0000000000000000  0.0000000000000000  0.0000000000000000
  0.0000000000000000  0.0000000000000000  0.0000000000000000
  0.0000000000000000  0.0000000000000000  0.0000000000000000
  0.0000000000000000  0.0000000000000000  0.0000000000000000
  0.0000000000000000  0.0000000000000000  0.0000000000000000
  0.0000000000000000  0.0000000000000000  0.0000000000000000
  0.0000000000000000  0.0000000000000000  0.0000000000000000
  0.0000000000000000  0.0000000000000000  0.0000000000000000
  0.0000000000000000  0.0000000000000000  0.0000000000000000
  0.0000000000000000  0.0000000000000000  0.0000000000000000
  0.0000000000000000  0.0000000000000000  0.0000000000000000
  0.0000000000000000  0.0000000000000000  0.0000000000000000
  0.0000000000000000  0.0000000000000000  0.0000000000000000
  0.0000000000000000  0.0000000000000000  0.0000000000000000
  0.0000000000000000  0.0000000000000000  0.0000000000000000
  0.0000000000000000  0.0000000000000000  0.0000000000000000
  0.0000000000000000  0.0000000000000000  0.0000000000000000
  0.0000000000000000  0.0000000000000000  0.0000000000000000
  0.0000000000000000  0.0000000000000000  0.0000000000000000
  0.0000000000000000  0.0000000000000000  0.0000000000000000
  0.0000000000000000  0.0000000000000000  0.0000000000000000
  0.0000000000000000  0.0000000000000000  0.0000000000000000
  0.0000000000000000  0.0000000000000000  0.0000000000000000
  0.0000000000000000  0.0000000000000000  0.0000000000000000
  0.0000000000000000  0.0000000000000000  0.0000000000000000
  0.0000000000000000  0.0000000000000000  0.0000000000000000
  0.0000000000000000  0.0000000000000000  0.0000000000000000
  0.0000000000000000  0.0000000000000000  0.0000000000000000
  0.0000000000000000  0.0000000000000000  0.0000000000000000
  0.0000000000000000  0.0000000000000000  0.0000000000000000
  0.0000000000000000  0.0000000000000000  0.0000000000000000
  0.0000000000000000  0.0000000000000000  0.0000000000000000
  0.0000000000000000  0.0000000000000000  0.0000000000000000
  0.0000000000000000  0.0000000000000000  0.0000000000000000
  0.0000000000000000  0.0000000000000000  0.0000000000000000
  0.0000000000000000  0.0000000000000000  0.0000000000000000
  0.0000000000000000  0.0000000000000000  0.0000000000000000
  0.0000000000000000  0.0000000000000000  0.0000000000000000
  0.0000000000000000  0.0000000000000000  0.0000000000000000
  0.0000000000000000  0.0000000000000000  0.0000000000000000
  0.0000000000000000  0.0000000000000000  0.0000000000000000
  0.0000000000000000  0.0000000000000000  0.0000000000000000
  0.0000000000000000  0.0000000000000000  0.0000000000000000
  0.0000000000000000  0.0000000000000000  0.0000000000000000
  0.0000000000000000  0.0000000000000000  0.0000000000000000
  0.0000000000000000  0.0000000000000000  0.0000000000000000
  0.0000000000000000  0.0000000000000000  0.0000000000000000
  0.0000000000000000  0.0000000000000000  0.0000000000000000
  0.0000000000000000  0.0000000000000000  0.0000000000000000
  0.0000000000000000  0.0000000000000000  0.0000000000000000
  0.0000000000000000  0.0000000000000000  0.0000000000000000
  0.0000000000000000  0.0000000000000000  0.0000000000000000
  0.0000000000000000  0.0000000000000000  0.0000000000000000
  0.0000000000000000  0.0000000000000000  0.0000000000000000
  0.0000000000000000  0.0000000000000000  0.0000000000000000
  0.0000000000000000  0.0000000000000000  0.0000000000000000
  0.0000000000000000  0.0000000000000000  0.0000000000000000
  0.0000000000000000  0.0000000000000000  0.0000000000000000
  0.0000000000000000  0.0000000000000000  0.0000000000000000
  0.0000000000000000  0.0000000000000000  0.0000000000000000
  0.0000000000000000  0.0000000000000000  0.0000000000000000
  0.0000000000000000  0.0000000000000000  0.0000000000000000
  0.0000000000000000  0.0000000000000000  0.0000000000000000
  0.0000000000000000  0.0000000000000000  0.0000000000000000
  0.0000000000000000  0.0000000000000000  0.0000000000000000
  0.0000000000000000  0.0000000000000000  0.0000000000000000
  0.0000000000000000  0.0000000000000000  0.0000000000000000
  0.0000000000000000  0.0000000000000000  0.0000000000000000
  0.0000000000000000  0.0000000000000000  0.0000000000000000
  0.0000000000000000  0.0000000000000000  0.0000000000000000
  0.0000000000000000  0.0000000000000000  0.0000000000000000
  0.0000000000000000  0.0000000000000000  0.0000000000000000
  0.0000000000000000  0.0000000000000000  0.0000000000000000
  0.0000000000000000  0.0000000000000000  0.0000000000000000
  0.0000000000000000  0.0000000000000000  0.0000000000000000
  0.0000000000000000  0.0000000000000000  0.0000000000000000
  0.0000000000000000  0.0000000000000000  0.0000000000000000
  0.0000000000000000  0.0000000000000000  0.0000000000000000
  0.0000000000000000  0.0000000000000000  0.0000000000000000
  0.0000000000000000  0.0000000000000000  0.0000000000000000
  0.0000000000000000  0.0000000000000000  0.0000000000000000
  0.0000000000000000  0.0000000000000000  0.0000000000000000
  0.0000000000000000  0.0000000000000000  0.0000000000000000
  0.0000000000000000  0.0000000000000000  0.0000000000000000
  0.0000000000000000  0.0000000000000000  0.0000000000000000
  0.0000000000000000  0.0000000000000000  0.0000000000000000
  0.0000000000000000  0.0000000000000000  0.0000000000000000
  0.0000000000000000  0.0000000000000000  0.0000000000000000
  0.0000000000000000  0.0000000000000000  0.0000000000000000
  0.0000000000000000  0.0000000000000000  0.0000000000000000
  0.0000000000000000  0.0000000000000000  0.0000000000000000
  0.0000000000000000  0.0000000000000000  0.0000000000000000
  0.0000000000000000  0.0000000000000000  0.0000000000000000
  0.0000000000000000  0.0000000000000000  0.0000000000000000
  0.0000000000000000  0.0000000000000000  0.0000000000000000
  0.0000000000000000  0.0000000000000000  0.0000000000000000
  0.0000000000000000  0.0000000000000000  0.0000000000000000
  0.0000000000000000  0.0000000000000000  0.0000000000000000
  0.0000000000000000  0.0000000000000000  0.0000000000000000
  0.0000000000000000  0.0000000000000000  0.0000000000000000
  0.0000000000000000  0.0000000000000000  0.0000000000000000
  0.0000000000000000  0.0000000000000000  0.0000000000000000
  0.0000000000000000  0.0000000000000000  0.0000000000000000
  0.0000000000000000  0.0000000000000000  0.0000000000000000
  0.0000000000000000  0.0000000000000000  0.0000000000000000
  0.0000000000000000  0.0000000000000000  0.0000000000000000
