Pd O 
 1.0000000000000000
     4.5222304600028309    0.0000000000000000    0.0000000000000003
     0.0000000000000007    4.5222304600028309    0.0000000000000003
     0.0000000000000000    0.0000000000000000    3.1462736300000000
 Pd  O  
   2   4
Cartesian
  2.2611152300014159  2.2611152300014155  1.5731368150000002
  0.0000000000000000  0.0000000000000000  0.0000000000000000
  3.6546492289337711  0.8675812310690599  1.5731368150000002
  0.8675812310690605  3.6546492289337711  1.5731368150000002
  1.3935339989323559  1.3935339989323556  0.0000000000000002
  3.1286964610704757  3.1286964610704753  0.0000000000000004
