O  Pd                                   
    1.000000000000000     
     9.5317092920176041    0.0000000000000000    0.0000000000000000
     0.0000000000000000   12.8477517144159332    0.0000000000000000
     0.0000000000000000    0.0000000000000000   32.1028443220921673
   O    Pd
   102    48
Selective dynamics
Direct
  0.3333690762889225  0.3751282324047260  0.3486828288589811   T   T   T
  0.5001461320086842  0.5288888979613472  0.1905689364779791   T   T   T
  0.3322323017695485  0.1269675222191668  0.3235833698499376   T   T   T
  0.3325419955009936  0.1135682396024799  0.2473948087744770   T   T   T
  0.8322479760851448  0.0302608049546162  0.3814006284169716   T   T   T
  0.8333333333333357  0.2789897956032235  0.0851486940133555   F   F   F
  0.3335279907288624  0.8747979093677609  0.3488403375840647   T   T   T
  0.3326422415512513  0.8747379801227444  0.4247909459090026   T   T   T
  0.4981786382570442  0.7202526957539160  0.3823043284286206   T   T   T
  0.4977127788917688  0.5301191945961423  0.3824968583199436   T   T   T
  0.3333757599681000  0.6323033071831063  0.2476008173578617   T   T   T
  0.3347063186793847  0.6237643418541842  0.3236760266930420   T   T   T
  0.5001233001770652  0.9711489381890446  0.2904061731484544   T   T   T
  0.5002596527943001  0.7794492117188374  0.2910020952393979   T   T   T
  0.3333333333333357  0.8750000000000000  0.1467763379882641   F   F   F
  0.3334243629118737  0.8746303438713314  0.2252521930658037   T   T   T
  0.5001704460884134  0.7208022829707427  0.1899123748764675   T   T   T
  0.3333333333333357  0.6250000000000000  0.0467248317610185   F   F   F
  0.3333333333333357  0.6250000000000000  0.1235725562656853   F   F   F
  0.5000000000000000  0.9710102043967765  0.0851486940133555   F   F   F
  0.5000000000000000  0.7789897956032235  0.0851486940133555   F   F   F
  0.6667692591628891  0.8756720179900317  0.4249347196681691   T   T   T
  0.3573279109742430  0.1227499818829983  0.4442728627553511   T   T   T
  0.5003509465695131  0.4709270968131435  0.2899565926925123   T   T   T
  0.6665876479659585  0.3775856323898681  0.3491443665484091   T   T   T
  0.8333333333333357  0.7789897956032235  0.0851486940133555   F   F   F
  0.9996740840678672  0.1253516264174464  0.4455379049089879   T   T   T
  0.6434022131400897  0.1253434136973512  0.4444221138823841   T   T   T
  0.0272062986841521  0.6246219723779441  0.4440773241584164   T   T   T
  0.3051141418104193  0.6270057011469766  0.4439969567594030   T   T   T
  0.8349948343445956  0.7202700396635213  0.3822018884021713   T   T   T
  0.6665309172182685  0.6329999609308127  0.2479189054764048   T   T   T
  0.8353199249010423  0.5298488020885834  0.3821200924659472   T   T   T
  0.8333333333333357  0.4710102043967765  0.0851486940133555   F   F   F
  0.8332374948172644  0.0294099268878358  0.1895839744882936   T   T   T
  0.6666666666666643  0.1250000000000000  0.1235725562656853   F   F   F
  0.3326798295797521  0.3754590280169017  0.4243985357688129   T   T   T
  0.3333333333333357  0.3750000000000000  0.1467763379882641   F   F   F
  0.5001371096919750  0.2792230238507949  0.2892541710537987   T   T   T
  0.6667331512338628  0.6236375717398788  0.3244849308458658   T   T   T
  0.8332741823124248  0.7209953812376875  0.1898963049888112   T   T   T
  0.8329725311751580  0.7793424518797624  0.2908824629574381   T   T   T
  0.6666666666666643  0.8750000000000000  0.1467763379882641   F   F   F
  0.6667702305969424  0.8755494998648305  0.2252847523406639   T   T   T
  0.8332639044374324  0.5287528802227978  0.1905082952896925   T   T   T
  0.6666666666666643  0.6250000000000000  0.0467248317610185   F   F   F
  0.6666666666666643  0.6250000000000000  0.1235725562656853   F   F   F
  0.8333333333333357  0.9710102043967765  0.0851486940133555   F   F   F
  0.8334345541874518  0.9710470810046382  0.2909587563627285   T   T   T
  0.5004908902890489  0.2208806947464824  0.3788530530969340   T   T   T
  0.6657131904213323  0.3743584863711533  0.4248801542737397   T   T   T
  0.8326728847318619  0.2201052422927557  0.3813582461266973   T   T   T
  0.9997750667349147  0.8742229531754511  0.2250778123219909   T   T   T
  0.8330385910122294  0.4709170723392810  0.2904152581551593   T   T   T
  0.8334326930688911  0.2792886096443684  0.2900928157667889   T   T   T
  0.6666666666666643  0.3750000000000000  0.1467763379882641   F   F   F
  0.6667347448982843  0.3738594539986131  0.2255025431947013   T   T   T
  0.8332930759511449  0.2213580567006177  0.1904210421894529   T   T   T
  0.6666666666666643  0.1250000000000000  0.0467248317610185   F   F   F
  0.3333949368428435  0.3740929210256574  0.2252520108251587   T   T   T
  0.6668539644105972  0.8735932143218330  0.3490594109677480   T   T   T
  0.4998387325745845  0.0292585206723804  0.1895295943463937   T   T   T
  0.1667035040378392  0.4709665246238680  0.2892840884710522   T   T   T
  0.1666304325698098  0.7207981883630248  0.1899152252364530   T   T   T
  0.1666432682404900  0.5289551476549178  0.1904868773899334   T   T   T
  0.0000000000000000  0.6250000000000000  0.0467248317610185   F   F   F
  0.4998461237584588  0.2214714740023818  0.1903997658101747   T   T   T
  0.1666666666666643  0.9710102043967765  0.0851486940133555   F   F   F
  0.1666666666666643  0.7789897956032235  0.0851486940133555   F   F   F
  0.5002729408173070  0.0288662890039047  0.3785615824139391   T   T   T
  0.9998630073485045  0.3727676390295764  0.3489481756867561   T   T   T
  0.0016671389391268  0.3760484727499077  0.4248219861312642   T   T   T
  0.1675408992065380  0.2196491455602675  0.3817646984720868   T   T   T
  0.1670664773920537  0.0300281167085113  0.3815458938166637   T   T   T
  0.0000907187643362  0.1141052144430560  0.2470024495984198   T   T   T
  0.1664797828592193  0.2793615804447925  0.2895334434213937   T   T   T
  0.6670889238840809  0.6245341848108481  0.4442848995687034   T   T   T
  0.1664535356806622  0.9710221024844732  0.2909414718525836   T   T   T
  0.0000000000000000  0.3750000000000000  0.1467763379882641   F   F   F
  0.1668321363810822  0.2215338516991469  0.1904998339117856   T   T   T
  0.6678295145693072  0.1270411009127552  0.3234662466398956   T   T   T
  0.6674271236253032  0.1149498069409285  0.2473730601248743   T   T   T
  0.9999604651493439  0.1271640079991432  0.3238841252266549   T   T   T
  0.1669104500155868  0.0291749743625187  0.1895887600862116   T   T   T
  0.0000000000000000  0.1250000000000000  0.0467248317610185   F   F   F
  0.0000000000000000  0.1250000000000000  0.1235725562656853   F   F   F
  0.1666666666666643  0.4710102043967765  0.0851486940133555   F   F   F
  0.1666666666666643  0.2789897956032235  0.0851486940133555   F   F   F
  0.0000000000000000  0.8750000000000000  0.1467763379882641   F   F   F
  0.9998525182865828  0.3748289267735467  0.2253160839585270   T   T   T
  0.0000000000000000  0.6250000000000000  0.1235725562656853   F   F   F
  0.9985608672381296  0.6236298361623289  0.3235601614947989   T   T   T
  0.1666444139246294  0.7795143887639067  0.2900452246783866   T   T   T
  0.5000000000000000  0.4710102043967765  0.0851486940133555   F   F   F
  0.9999741140694703  0.6317671011899797  0.2474699857262002   T   T   T
  0.3333333333333357  0.1250000000000000  0.1235725562656853   F   F   F
  0.9998710312595113  0.8762809149408772  0.3488546799329623   T   T   T
  0.1665659667677553  0.7212786020039231  0.3782778375079869   T   T   T
  0.5000000000000000  0.2789897956032235  0.0851486940133555   F   F   F
  0.1668906893523461  0.5287939654634783  0.3785343203916552   T   T   T
  0.3333333333333357  0.1250000000000000  0.0467248317610185   F   F   F
  0.0005803937475780  0.8739374498280684  0.4248652426009687   T   T   T
  0.6666666666666643  0.8750000000000000  0.0851486940133555   F   F   F
  0.1667225685242431  0.3753469583232418  0.1860801416999621   T   T   T
  0.8333333333333357  0.6250000000000000  0.0851486940133555   F   F   F
  0.3352311595538303  0.1247502088285282  0.3871906700027835   T   T   T
  0.1661641058854432  0.1259541399565717  0.2853220851097759   T   T   T
  0.3336793957205859  0.8752317303757898  0.2859747283844462   T   T   T
  0.8330128096553594  0.6245816795134282  0.2857055674384232   T   T   T
  0.6669186061965796  0.8752733633686985  0.2861108501997071   T   T   T
  0.5002006373600681  0.3753746492991289  0.1861583378185867   T   T   T
  0.3331378203578749  0.1257577583094101  0.1852424261187317   T   T   T
  0.4999974485947269  0.1258588931218843  0.2852135195153236   T   T   T
  0.8333786169906899  0.8751826792691357  0.3871243153626195   T   T   T
  0.6666019770691767  0.6250005639585883  0.3877896268445558   T   T   T
  0.0000000000000000  0.3750000000000000  0.0851486940133555   F   F   F
  0.0002371168848638  0.1257454712637180  0.1850842362438138   T   T   T
  0.3333333333333357  0.3750000000000000  0.0851486940133555   F   F   F
  0.1665645862819064  0.3746657704816071  0.3866062330357825   T   T   T
  0.1666666666666643  0.1250000000000000  0.0851486940133555   F   F   F
  0.6667277229312435  0.6246013098585351  0.1854378225128837   T   T   T
  0.3336541809930815  0.3752940415013403  0.2860259641712877   T   T   T
  0.8330501394077182  0.8752562144871225  0.1859861216384431   T   T   T
  0.5000000000000000  0.6250000000000000  0.0851486940133555   F   F   F
  0.5000000000000000  0.1250000000000000  0.0851486940133555   F   F   F
  0.5003419441860246  0.8749492198358240  0.1860683678774961   T   T   T
  0.5001227390241726  0.8748441857788607  0.3870996639332071   T   T   T
  0.3303377052538137  0.6253786249625639  0.3871484382300332   T   T   T
  0.1664976454500778  0.8758318072004004  0.3867258638480796   T   T   T
  0.9998126994580032  0.6245921878696294  0.1852011253819775   T   T   T
  0.8333333333333357  0.1250000000000000  0.0851486940133555   F   F   F
  0.6666666666666643  0.3750000000000000  0.0851486940133555   F   F   F
  0.1667180393380284  0.8750447125159240  0.1859955790542543   T   T   T
  0.0027980090071098  0.6250149425197364  0.3870942974474064   T   T   T
  0.6651635120642755  0.1248209116232605  0.3872264034253776   T   T   T
  0.6666540168849858  0.1257282083734400  0.1852329562997518   T   T   T
  0.0000000000000000  0.8750000000000000  0.0851486940133555   F   F   F
  0.1666666666666643  0.6250000000000000  0.0851486940133555   F   F   F
  0.8338233420882715  0.1259755278679472  0.2852542350650198   T   T   T
  0.6664386742158057  0.3751612305933972  0.2864306113467995   T   T   T
  0.3333333333333357  0.8750000000000000  0.0851486940133555   F   F   F
  0.9998025447024661  0.1250291717880537  0.3882892198882185   T   T   T
  0.5003038791436696  0.6246438082388975  0.2858690313619763   T   T   T
  0.1666828764438288  0.6247009238555552  0.2856082607576186   T   T   T
  0.8329786731048899  0.3750930096876993  0.1861912087071505   T   T   T
  0.9995100387266492  0.8752491057967337  0.2858560575242777   T   T   T
  0.9998874332370049  0.3752802057852554  0.2861518094924797   T   T   T
  0.8333568030337418  0.3745503183777353  0.3873073528874319   T   T   T
  0.4999987678741537  0.3751117463068032  0.3869660505588478   T   T   T
  0.3335396183193946  0.6245778224471694  0.1852571569610624   T   T   T
 
  0.00000000E+00  0.00000000E+00  0.00000000E+00
  0.00000000E+00  0.00000000E+00  0.00000000E+00
  0.00000000E+00  0.00000000E+00  0.00000000E+00
  0.00000000E+00  0.00000000E+00  0.00000000E+00
  0.00000000E+00  0.00000000E+00  0.00000000E+00
  0.00000000E+00  0.00000000E+00  0.00000000E+00
  0.00000000E+00  0.00000000E+00  0.00000000E+00
  0.00000000E+00  0.00000000E+00  0.00000000E+00
  0.00000000E+00  0.00000000E+00  0.00000000E+00
  0.00000000E+00  0.00000000E+00  0.00000000E+00
  0.00000000E+00  0.00000000E+00  0.00000000E+00
  0.00000000E+00  0.00000000E+00  0.00000000E+00
  0.00000000E+00  0.00000000E+00  0.00000000E+00
  0.00000000E+00  0.00000000E+00  0.00000000E+00
  0.00000000E+00  0.00000000E+00  0.00000000E+00
  0.00000000E+00  0.00000000E+00  0.00000000E+00
  0.00000000E+00  0.00000000E+00  0.00000000E+00
  0.00000000E+00  0.00000000E+00  0.00000000E+00
  0.00000000E+00  0.00000000E+00  0.00000000E+00
  0.00000000E+00  0.00000000E+00  0.00000000E+00
  0.00000000E+00  0.00000000E+00  0.00000000E+00
  0.00000000E+00  0.00000000E+00  0.00000000E+00
  0.00000000E+00  0.00000000E+00  0.00000000E+00
  0.00000000E+00  0.00000000E+00  0.00000000E+00
  0.00000000E+00  0.00000000E+00  0.00000000E+00
  0.00000000E+00  0.00000000E+00  0.00000000E+00
  0.00000000E+00  0.00000000E+00  0.00000000E+00
  0.00000000E+00  0.00000000E+00  0.00000000E+00
  0.00000000E+00  0.00000000E+00  0.00000000E+00
  0.00000000E+00  0.00000000E+00  0.00000000E+00
  0.00000000E+00  0.00000000E+00  0.00000000E+00
  0.00000000E+00  0.00000000E+00  0.00000000E+00
  0.00000000E+00  0.00000000E+00  0.00000000E+00
  0.00000000E+00  0.00000000E+00  0.00000000E+00
  0.00000000E+00  0.00000000E+00  0.00000000E+00
  0.00000000E+00  0.00000000E+00  0.00000000E+00
  0.00000000E+00  0.00000000E+00  0.00000000E+00
  0.00000000E+00  0.00000000E+00  0.00000000E+00
  0.00000000E+00  0.00000000E+00  0.00000000E+00
  0.00000000E+00  0.00000000E+00  0.00000000E+00
  0.00000000E+00  0.00000000E+00  0.00000000E+00
  0.00000000E+00  0.00000000E+00  0.00000000E+00
  0.00000000E+00  0.00000000E+00  0.00000000E+00
  0.00000000E+00  0.00000000E+00  0.00000000E+00
  0.00000000E+00  0.00000000E+00  0.00000000E+00
  0.00000000E+00  0.00000000E+00  0.00000000E+00
  0.00000000E+00  0.00000000E+00  0.00000000E+00
  0.00000000E+00  0.00000000E+00  0.00000000E+00
  0.00000000E+00  0.00000000E+00  0.00000000E+00
  0.00000000E+00  0.00000000E+00  0.00000000E+00
  0.00000000E+00  0.00000000E+00  0.00000000E+00
  0.00000000E+00  0.00000000E+00  0.00000000E+00
  0.00000000E+00  0.00000000E+00  0.00000000E+00
  0.00000000E+00  0.00000000E+00  0.00000000E+00
  0.00000000E+00  0.00000000E+00  0.00000000E+00
  0.00000000E+00  0.00000000E+00  0.00000000E+00
  0.00000000E+00  0.00000000E+00  0.00000000E+00
  0.00000000E+00  0.00000000E+00  0.00000000E+00
  0.00000000E+00  0.00000000E+00  0.00000000E+00
  0.00000000E+00  0.00000000E+00  0.00000000E+00
  0.00000000E+00  0.00000000E+00  0.00000000E+00
  0.00000000E+00  0.00000000E+00  0.00000000E+00
  0.00000000E+00  0.00000000E+00  0.00000000E+00
  0.00000000E+00  0.00000000E+00  0.00000000E+00
  0.00000000E+00  0.00000000E+00  0.00000000E+00
  0.00000000E+00  0.00000000E+00  0.00000000E+00
  0.00000000E+00  0.00000000E+00  0.00000000E+00
  0.00000000E+00  0.00000000E+00  0.00000000E+00
  0.00000000E+00  0.00000000E+00  0.00000000E+00
  0.00000000E+00  0.00000000E+00  0.00000000E+00
  0.00000000E+00  0.00000000E+00  0.00000000E+00
  0.00000000E+00  0.00000000E+00  0.00000000E+00
  0.00000000E+00  0.00000000E+00  0.00000000E+00
  0.00000000E+00  0.00000000E+00  0.00000000E+00
  0.00000000E+00  0.00000000E+00  0.00000000E+00
  0.00000000E+00  0.00000000E+00  0.00000000E+00
  0.00000000E+00  0.00000000E+00  0.00000000E+00
  0.00000000E+00  0.00000000E+00  0.00000000E+00
  0.00000000E+00  0.00000000E+00  0.00000000E+00
  0.00000000E+00  0.00000000E+00  0.00000000E+00
  0.00000000E+00  0.00000000E+00  0.00000000E+00
  0.00000000E+00  0.00000000E+00  0.00000000E+00
  0.00000000E+00  0.00000000E+00  0.00000000E+00
  0.00000000E+00  0.00000000E+00  0.00000000E+00
  0.00000000E+00  0.00000000E+00  0.00000000E+00
  0.00000000E+00  0.00000000E+00  0.00000000E+00
  0.00000000E+00  0.00000000E+00  0.00000000E+00
  0.00000000E+00  0.00000000E+00  0.00000000E+00
  0.00000000E+00  0.00000000E+00  0.00000000E+00
  0.00000000E+00  0.00000000E+00  0.00000000E+00
  0.00000000E+00  0.00000000E+00  0.00000000E+00
  0.00000000E+00  0.00000000E+00  0.00000000E+00
  0.00000000E+00  0.00000000E+00  0.00000000E+00
  0.00000000E+00  0.00000000E+00  0.00000000E+00
  0.00000000E+00  0.00000000E+00  0.00000000E+00
  0.00000000E+00  0.00000000E+00  0.00000000E+00
  0.00000000E+00  0.00000000E+00  0.00000000E+00
  0.00000000E+00  0.00000000E+00  0.00000000E+00
  0.00000000E+00  0.00000000E+00  0.00000000E+00
  0.00000000E+00  0.00000000E+00  0.00000000E+00
  0.00000000E+00  0.00000000E+00  0.00000000E+00
  0.00000000E+00  0.00000000E+00  0.00000000E+00
  0.00000000E+00  0.00000000E+00  0.00000000E+00
  0.00000000E+00  0.00000000E+00  0.00000000E+00
  0.00000000E+00  0.00000000E+00  0.00000000E+00
  0.00000000E+00  0.00000000E+00  0.00000000E+00
  0.00000000E+00  0.00000000E+00  0.00000000E+00
  0.00000000E+00  0.00000000E+00  0.00000000E+00
  0.00000000E+00  0.00000000E+00  0.00000000E+00
  0.00000000E+00  0.00000000E+00  0.00000000E+00
  0.00000000E+00  0.00000000E+00  0.00000000E+00
  0.00000000E+00  0.00000000E+00  0.00000000E+00
  0.00000000E+00  0.00000000E+00  0.00000000E+00
  0.00000000E+00  0.00000000E+00  0.00000000E+00
  0.00000000E+00  0.00000000E+00  0.00000000E+00
  0.00000000E+00  0.00000000E+00  0.00000000E+00
  0.00000000E+00  0.00000000E+00  0.00000000E+00
  0.00000000E+00  0.00000000E+00  0.00000000E+00
  0.00000000E+00  0.00000000E+00  0.00000000E+00
  0.00000000E+00  0.00000000E+00  0.00000000E+00
  0.00000000E+00  0.00000000E+00  0.00000000E+00
  0.00000000E+00  0.00000000E+00  0.00000000E+00
  0.00000000E+00  0.00000000E+00  0.00000000E+00
  0.00000000E+00  0.00000000E+00  0.00000000E+00
  0.00000000E+00  0.00000000E+00  0.00000000E+00
  0.00000000E+00  0.00000000E+00  0.00000000E+00
  0.00000000E+00  0.00000000E+00  0.00000000E+00
  0.00000000E+00  0.00000000E+00  0.00000000E+00
  0.00000000E+00  0.00000000E+00  0.00000000E+00
  0.00000000E+00  0.00000000E+00  0.00000000E+00
  0.00000000E+00  0.00000000E+00  0.00000000E+00
  0.00000000E+00  0.00000000E+00  0.00000000E+00
  0.00000000E+00  0.00000000E+00  0.00000000E+00
  0.00000000E+00  0.00000000E+00  0.00000000E+00
  0.00000000E+00  0.00000000E+00  0.00000000E+00
  0.00000000E+00  0.00000000E+00  0.00000000E+00
  0.00000000E+00  0.00000000E+00  0.00000000E+00
  0.00000000E+00  0.00000000E+00  0.00000000E+00
  0.00000000E+00  0.00000000E+00  0.00000000E+00
  0.00000000E+00  0.00000000E+00  0.00000000E+00
  0.00000000E+00  0.00000000E+00  0.00000000E+00
  0.00000000E+00  0.00000000E+00  0.00000000E+00
  0.00000000E+00  0.00000000E+00  0.00000000E+00
  0.00000000E+00  0.00000000E+00  0.00000000E+00
  0.00000000E+00  0.00000000E+00  0.00000000E+00
  0.00000000E+00  0.00000000E+00  0.00000000E+00
  0.00000000E+00  0.00000000E+00  0.00000000E+00
  0.00000000E+00  0.00000000E+00  0.00000000E+00
  0.00000000E+00  0.00000000E+00  0.00000000E+00
  0.00000000E+00  0.00000000E+00  0.00000000E+00
