O  Pd                                   
    1.000000000000000     
    12.2143708368485502    0.0000000000000000    0.0000000000000007
     0.0000000000000017   10.8116922467861709    0.0000000000000007
     0.0000000000000000    0.0000000000000000   29.2503334901734533
   O    Pd
    48    56
Selective dynamics
Direct
  0.4999999127660956  0.1233128578169979  0.3128857419785863   T   T   T
  0.7500000000000000  0.3750000000000000  0.1034790374483450   F   F   F
  0.4999996610640946  0.6233134090929721  0.3128864834377057   T   T   T
  0.4999997703924460  0.8766873213805045  0.3128860067859632   T   T   T
  0.7499996707415422  0.3766882360360501  0.3128854524403264   T   T   T
  0.2499998924086401  0.1233124608258705  0.3128861506253112   T   T   T
  0.0000000000000000  0.6250000000000000  0.1034790374483450   F   F   F
  0.2500000542540447  0.3766864481984017  0.3128867131224198   T   T   T
  0.0000003093195438  0.8746432006014753  0.2086347012706246   T   T   T
  0.0000001717890977  0.6253564676804197  0.2086346535078811   T   T   T
  0.9999999056039968  0.8766872785362747  0.3128857586168675   T   T   T
  0.9999996614379114  0.1233129459108957  0.3128859313634987   T   T   T
  0.9999996939035311  0.3766867533548596  0.3128862252618627   T   T   T
  0.0000000680918900  0.1253566840092099  0.2086346773957300   T   T   T
  0.0000000906673265  0.3746433398517111  0.2086346491200444   T   T   T
  0.2500000000000000  0.3750000000000000  0.1034790374483450   F   F   F
  0.0000000000000000  0.8750000000000000  0.1034790374483450   F   F   F
  0.2500001565921251  0.3746432215490525  0.2086349227437580   T   T   T
  0.2500000000000000  0.1250000000000000  0.1034790374483450   F   F   F
  0.2500002121287271  0.1253566769138708  0.2086349069410681   T   T   T
  0.0000000000000000  0.3750000000000000  0.1034790374483450   F   F   F
  0.0000000000000000  0.1250000000000000  0.1034790374483450   F   F   F
  0.7500000000000000  0.1250000000000000  0.1034790374483450   F   F   F
  0.7500000113728454  0.3746434304486337  0.2086345460683278   T   T   T
  0.0000001899588961  0.6233123510448720  0.3128859748858185   T   T   T
  0.7499996683007794  0.1233128804298983  0.3128856631362628   T   T   T
  0.7499999407901680  0.1253564590539261  0.2086346494759109   T   T   T
  0.5000000175684018  0.3766880537053668  0.3128857239913392   T   T   T
  0.5000001310433297  0.1253564178816644  0.2086348144247710   T   T   T
  0.5000001342961156  0.3746434636837174  0.2086347507080587   T   T   T
  0.5000000000000000  0.1250000000000000  0.1034790374483450   F   F   F
  0.5000000000000000  0.3750000000000000  0.1034790374483450   F   F   F
  0.2499996296975866  0.8766873084830293  0.3128860775755065   T   T   T
  0.2500000941816193  0.6253566118971372  0.2086348636703901   T   T   T
  0.2500000540154024  0.8746433924634129  0.2086348668591089   T   T   T
  0.2500000000000000  0.6250000000000000  0.1034790374483450   F   F   F
  0.2499995547985109  0.6233122152513975  0.3128861162628312   T   T   T
  0.5000000000000000  0.8750000000000000  0.1034790374483450   F   F   F
  0.5000000000000000  0.6250000000000000  0.1034790374483450   F   F   F
  0.4999998141907326  0.8746432123910084  0.2086349067849812   T   T   T
  0.4999999845274433  0.6253566050681870  0.2086348949301247   T   T   T
  0.7500002258484192  0.6233131799749131  0.3128863963859918   T   T   T
  0.7499999562166970  0.8766871656847427  0.3128859910525201   T   T   T
  0.7500001763429769  0.6253564403181003  0.2086347184870002   T   T   T
  0.7500001683851466  0.8746432931424059  0.2086348553162809   T   T   T
  0.7500000000000000  0.6250000000000000  0.1034790374483450   F   F   F
  0.2500000000000000  0.8750000000000000  0.1034790374483450   F   F   F
  0.7500000000000000  0.8750000000000000  0.1034790374483450   F   F   F
  0.2500001174677877  0.2500001432992012  0.1560720953180006   T   T   T
  0.5000000000000000  0.2500000000000000  0.0512814666029016   F   F   F
  0.2500000128051262  0.7499998164578953  0.1560720125206892   T   T   T
  0.2499985522800750  0.2499982397666308  0.3684625793184410   T   T   T
  0.2499998235930923  0.2500002398246806  0.2614860586308467   T   T   T
  0.2500000000000000  0.2500000000000000  0.0512814666029016   F   F   F
  0.3750000000000000  0.5000000000000000  0.1034790374483450   F   F   F
  0.3749999766530777  0.0000000103848568  0.2083513401927624   T   T   T
  0.3749999192595975  0.4999999237622314  0.2083514410374566   T   T   T
  0.6250000000000000  0.0000000000000000  0.1034790374483450   F   F   F
  0.2500000000000000  0.7500000000000000  0.0512814666029016   F   F   F
  0.4999997839616103  0.7499999153540129  0.2614858454137543   T   T   T
  0.6250001596235294  0.9999998419141339  0.2083511880761280   T   T   T
  0.4999999644933695  0.7499995734433390  0.1560719522146622   T   T   T
  0.1250001864597102  0.4999997469804928  0.2083513416983053   T   T   T
  0.6250000000000000  0.5000000000000000  0.1034790374483450   F   F   F
  0.5000000000000000  0.7500000000000000  0.0512814666029016   F   F   F
  0.0000000295326160  0.7499999843187940  0.2614855558423153   T   T   T
  0.5000001127654768  0.2500003770274238  0.3684616517414194   T   T   T
  0.1250000289208925  0.4999993219534111  0.3115280943063326   T   T   T
  0.6250001667401256  0.0000000328819794  0.3115276899388721   T   T   T
  0.4999999901720142  0.2499998369255593  0.2614855571975102   T   T   T
  0.9999995618937123  0.7500004783601674  0.3684619548561943   T   T   T
  0.5000000770400611  0.2499999680531972  0.1560718497316933   T   T   T
  0.2499996830713384  0.7499996586918277  0.2614857976621167   T   T   T
  0.0000002340500750  0.7499998236723172  0.1560719263822670   T   T   T
  0.3749994387262726  0.5000000088100589  0.3115281277554320   T   T   T
  0.7500000000000000  0.2500000000000000  0.0512814666029016   F   F   F
  0.2499990984223120  0.7500000460122161  0.3684621800351031   T   T   T
  0.0000000000000000  0.7500000000000000  0.0512814666029016   F   F   F
  0.7500015947505321  0.7500013375508277  0.3684623567994870   T   T   T
  0.1250000000000000  0.0000000000000000  0.1034790374483450   F   F   F
  0.1250000000000000  0.5000000000000000  0.1034790374483450   F   F   F
  0.8750000000000000  0.0000000000000000  0.1034790374483450   F   F   F
  0.8750000593465661  0.5000001584962703  0.3115277789825660   T   T   T
  0.7499999492943175  0.2499998973890912  0.1560719005187454   T   T   T
  0.8750002628252658  0.9999999076726724  0.2083511414037477   T   T   T
  0.7500001417602953  0.7499994873041089  0.1560720019688409   T   T   T
  0.1250000490227787  0.9999999537391714  0.2083512510515163   T   T   T
  0.7500002986400064  0.7500004431065033  0.2614857915165267   T   T   T
  0.7500000611925191  0.2499995616584035  0.2614853855805577   T   T   T
  0.8749995463187361  0.0000001791317713  0.3115276607476670   T   T   T
  0.0000000305378639  0.2499999899091724  0.1560719922121782   T   T   T
  0.1249998545108874  0.9999999003975688  0.3115278992045914   T   T   T
  0.7500000935265756  0.2500008298512559  0.3684615459161751   T   T   T
  0.5000006234290448  0.7500016232075790  0.3684623132223698   T   T   T
  0.9999999245661275  0.2499997787544596  0.2614857103165278   T   T   T
  0.8750003526753076  0.4999998740212845  0.2083512073452132   T   T   T
  0.7500000000000000  0.7500000000000000  0.0512814666029016   F   F   F
  0.8750000000000000  0.5000000000000000  0.1034790374483450   F   F   F
  0.9999995094262750  0.2499991428427294  0.3684622548308983   T   T   T
  0.3749994042764741  0.9999999799046252  0.3115279046806753   T   T   T
  0.6250000282706359  0.5000001736904404  0.2083512799526737   T   T   T
  0.6249998929342239  0.5000010261977661  0.3115278387033885   T   T   T
  0.3750000000000000  0.0000000000000000  0.1034790374483450   F   F   F
  0.0000000000000000  0.2500000000000000  0.0512814666029016   F   F   F
 
  0.00000000E+00  0.00000000E+00  0.00000000E+00
  0.00000000E+00  0.00000000E+00  0.00000000E+00
  0.00000000E+00  0.00000000E+00  0.00000000E+00
  0.00000000E+00  0.00000000E+00  0.00000000E+00
  0.00000000E+00  0.00000000E+00  0.00000000E+00
  0.00000000E+00  0.00000000E+00  0.00000000E+00
  0.00000000E+00  0.00000000E+00  0.00000000E+00
  0.00000000E+00  0.00000000E+00  0.00000000E+00
  0.00000000E+00  0.00000000E+00  0.00000000E+00
  0.00000000E+00  0.00000000E+00  0.00000000E+00
  0.00000000E+00  0.00000000E+00  0.00000000E+00
  0.00000000E+00  0.00000000E+00  0.00000000E+00
  0.00000000E+00  0.00000000E+00  0.00000000E+00
  0.00000000E+00  0.00000000E+00  0.00000000E+00
  0.00000000E+00  0.00000000E+00  0.00000000E+00
  0.00000000E+00  0.00000000E+00  0.00000000E+00
  0.00000000E+00  0.00000000E+00  0.00000000E+00
  0.00000000E+00  0.00000000E+00  0.00000000E+00
  0.00000000E+00  0.00000000E+00  0.00000000E+00
  0.00000000E+00  0.00000000E+00  0.00000000E+00
  0.00000000E+00  0.00000000E+00  0.00000000E+00
  0.00000000E+00  0.00000000E+00  0.00000000E+00
  0.00000000E+00  0.00000000E+00  0.00000000E+00
  0.00000000E+00  0.00000000E+00  0.00000000E+00
  0.00000000E+00  0.00000000E+00  0.00000000E+00
  0.00000000E+00  0.00000000E+00  0.00000000E+00
  0.00000000E+00  0.00000000E+00  0.00000000E+00
  0.00000000E+00  0.00000000E+00  0.00000000E+00
  0.00000000E+00  0.00000000E+00  0.00000000E+00
  0.00000000E+00  0.00000000E+00  0.00000000E+00
  0.00000000E+00  0.00000000E+00  0.00000000E+00
  0.00000000E+00  0.00000000E+00  0.00000000E+00
  0.00000000E+00  0.00000000E+00  0.00000000E+00
  0.00000000E+00  0.00000000E+00  0.00000000E+00
  0.00000000E+00  0.00000000E+00  0.00000000E+00
  0.00000000E+00  0.00000000E+00  0.00000000E+00
  0.00000000E+00  0.00000000E+00  0.00000000E+00
  0.00000000E+00  0.00000000E+00  0.00000000E+00
  0.00000000E+00  0.00000000E+00  0.00000000E+00
  0.00000000E+00  0.00000000E+00  0.00000000E+00
  0.00000000E+00  0.00000000E+00  0.00000000E+00
  0.00000000E+00  0.00000000E+00  0.00000000E+00
  0.00000000E+00  0.00000000E+00  0.00000000E+00
  0.00000000E+00  0.00000000E+00  0.00000000E+00
  0.00000000E+00  0.00000000E+00  0.00000000E+00
  0.00000000E+00  0.00000000E+00  0.00000000E+00
  0.00000000E+00  0.00000000E+00  0.00000000E+00
  0.00000000E+00  0.00000000E+00  0.00000000E+00
  0.00000000E+00  0.00000000E+00  0.00000000E+00
  0.00000000E+00  0.00000000E+00  0.00000000E+00
  0.00000000E+00  0.00000000E+00  0.00000000E+00
  0.00000000E+00  0.00000000E+00  0.00000000E+00
  0.00000000E+00  0.00000000E+00  0.00000000E+00
  0.00000000E+00  0.00000000E+00  0.00000000E+00
  0.00000000E+00  0.00000000E+00  0.00000000E+00
  0.00000000E+00  0.00000000E+00  0.00000000E+00
  0.00000000E+00  0.00000000E+00  0.00000000E+00
  0.00000000E+00  0.00000000E+00  0.00000000E+00
  0.00000000E+00  0.00000000E+00  0.00000000E+00
  0.00000000E+00  0.00000000E+00  0.00000000E+00
  0.00000000E+00  0.00000000E+00  0.00000000E+00
  0.00000000E+00  0.00000000E+00  0.00000000E+00
  0.00000000E+00  0.00000000E+00  0.00000000E+00
  0.00000000E+00  0.00000000E+00  0.00000000E+00
  0.00000000E+00  0.00000000E+00  0.00000000E+00
  0.00000000E+00  0.00000000E+00  0.00000000E+00
  0.00000000E+00  0.00000000E+00  0.00000000E+00
  0.00000000E+00  0.00000000E+00  0.00000000E+00
  0.00000000E+00  0.00000000E+00  0.00000000E+00
  0.00000000E+00  0.00000000E+00  0.00000000E+00
  0.00000000E+00  0.00000000E+00  0.00000000E+00
  0.00000000E+00  0.00000000E+00  0.00000000E+00
  0.00000000E+00  0.00000000E+00  0.00000000E+00
  0.00000000E+00  0.00000000E+00  0.00000000E+00
  0.00000000E+00  0.00000000E+00  0.00000000E+00
  0.00000000E+00  0.00000000E+00  0.00000000E+00
  0.00000000E+00  0.00000000E+00  0.00000000E+00
  0.00000000E+00  0.00000000E+00  0.00000000E+00
  0.00000000E+00  0.00000000E+00  0.00000000E+00
  0.00000000E+00  0.00000000E+00  0.00000000E+00
  0.00000000E+00  0.00000000E+00  0.00000000E+00
  0.00000000E+00  0.00000000E+00  0.00000000E+00
  0.00000000E+00  0.00000000E+00  0.00000000E+00
  0.00000000E+00  0.00000000E+00  0.00000000E+00
  0.00000000E+00  0.00000000E+00  0.00000000E+00
  0.00000000E+00  0.00000000E+00  0.00000000E+00
  0.00000000E+00  0.00000000E+00  0.00000000E+00
  0.00000000E+00  0.00000000E+00  0.00000000E+00
  0.00000000E+00  0.00000000E+00  0.00000000E+00
  0.00000000E+00  0.00000000E+00  0.00000000E+00
  0.00000000E+00  0.00000000E+00  0.00000000E+00
  0.00000000E+00  0.00000000E+00  0.00000000E+00
  0.00000000E+00  0.00000000E+00  0.00000000E+00
  0.00000000E+00  0.00000000E+00  0.00000000E+00
  0.00000000E+00  0.00000000E+00  0.00000000E+00
  0.00000000E+00  0.00000000E+00  0.00000000E+00
  0.00000000E+00  0.00000000E+00  0.00000000E+00
  0.00000000E+00  0.00000000E+00  0.00000000E+00
  0.00000000E+00  0.00000000E+00  0.00000000E+00
  0.00000000E+00  0.00000000E+00  0.00000000E+00
  0.00000000E+00  0.00000000E+00  0.00000000E+00
  0.00000000E+00  0.00000000E+00  0.00000000E+00
  0.00000000E+00  0.00000000E+00  0.00000000E+00
  0.00000000E+00  0.00000000E+00  0.00000000E+00
