O  Pd
 1.0000000000000000
    12.2143708368485502    0.0000000000000000    0.0000000000000007
     0.0000000000000017   10.8116922467861709    0.0000000000000007
     0.0000000000000000    0.0000000000000000   29.2503334901734533
 O   Pd 
  48  56
Selective dynamics
Cartesian
  6.1071775851812005  1.3531523475620688  9.1575787944067830   T   T   T
  9.1607781276364122  4.0543845925448139  3.0267963546061445   F   F   F
  6.1071796058434495  6.7590119853459827  9.1575888759425066   T   T   T
  6.1071750165211949  9.4585403071495850  9.1575855107619066   T   T   T
  9.1607845546362103  4.0526943856054976  9.1575832221114144   T   T   T
  3.0535755221209708  1.3531666453945164  9.1575963382301673   T   T   T
  0.0000000000000011  6.7573076542413570  3.0267963546061436   F   F   F
  3.0535816814116155  4.0526786471960365  9.1575924847212367   T   T   T
  0.0000095098335312  9.4563024292556115  6.1080152917104513   T   T   T
  0.0000018187488498  6.7612450867234593  6.1080095205048428   T   T   T
  0.0000033985212677  9.4585272639945241  9.1575814487212543   T   T   T
  0.0000015956457841  1.3531680198193434  9.1575782276937030   T   T   T
 12.2143555388950453  4.0526756535866904  9.1575796237416682   T   T   T
  0.0000044791727918  1.3553967151197275  6.1080128331944135   T   T   T
  0.0000033133110054  4.0504500222828312  6.1080118922441704   T   T   T
  3.0535927092121380  4.0543845925448139  3.0267963546061436   F   F   F
  0.0000000000000015  9.4602307159379002  3.0267963546061436   F   F   F
  3.0535910458314715  4.0504432047947798  6.1080276280170427   T   T   T
  3.0535927092121375  1.3514615308482714  3.0267963546061436   F   F   F
  3.0535965187719314  1.3554010333813142  6.1080194385891762   T   T   T
  0.0000000000000006  4.0543845925448139  3.0267963546061436   F   F   F
  0.0000000000000002  1.3514615308482714  3.0267963546061436   F   F   F
  9.1607781276364122  1.3514615308482714  3.0267963546061436   F   F   F
  9.1607842130494745  4.0504501157723514  6.1080020885758133   T   T   T
  0.0000001676008219  6.7590029117898460  9.1575840923318221   T   T   T
  9.1607891648502964  1.3531631491195197  9.1575733921133260   T   T   T
  9.1607782669093289  1.3553901171800962  6.1080145009992037   T   T   T
  6.1071995960638406  4.0527071069941938  9.1575859450818431   T   T   T
  6.1071834250986097  1.3553943187235511  6.1080189898853527   T   T   T
  6.1071853427937599  4.0504500757339787  6.1080116239471813   T   T   T
  6.1071854184242751  1.3514615308482714  3.0267963546061436   F   F   F
  6.1071854184242760  4.0543845925448139  3.0267963546061436   F   F   F
  3.0535724002735538  9.4585236677652276  9.1575921251231431   T   T   T
  3.0535934116375980  6.7612499826611403  6.1080197986889289   T   T   T
  3.0535935955978002  9.4562944426616049  6.1080209723297401   T   T   T
  3.0535927092121384  6.7573076542413570  3.0267963546061436   F   F   F
  3.0535665062828885  6.7590042350803134  9.1575978984767676   T   T   T
  6.1071854184242769  9.4602307159379002  3.0267963546061445   F   F   F
  6.1071854184242760  6.7573076542413570  3.0267963546061445   F   F   F
  6.1071802819201828  9.4562898270135278  6.1080145413342155   T   T   T
  6.1071875985272657  6.7612404311302985  6.1080224377261878   T   T   T
  9.1608044458195685  6.7590169647521821  9.1575885986957868   T   T   T
  9.1607957736703867  9.4585293066977911  9.1575784184751772   T   T   T
  9.1607807333742084  6.7612357170342063  6.1080181841778254   T   T   T
  9.1607805878289081  9.4562778491331070  6.1080148311346063   T   T   T
  9.1607781276364140  6.7573076542413570  3.0267963546061445   F   F   F
  3.0535927092121389  9.4602307159379002  3.0267963546061445   F   F   F
  9.1607781276364140  9.4602307159379002  3.0267963546061445   F   F   F
  3.0535949418107884  2.7029282410315134  4.5656068069739995   T   T   T
  6.1071854184242751  2.7029230616965427  1.5000000000000004   F   F   F
  3.0535956854740789  8.1087674249390833  4.5655986462555962   T   T   T
  3.0535758195623628  2.7028763458211338 10.7503334901734551   T   T   T
  3.0535875282560170  2.7029226588108073  7.6477261176865126   T   T   T
  3.0535927092121380  2.7029230616965427  1.5000000000000002   F   F   F
  4.5803890638182070  5.4058461233930855  3.0267963546061436   F   F   F
  4.5804050463352501 10.8116883818668637  6.1165820279020249   T   T   T
  4.5803950055119635  5.4058463974772719  6.1165890839657777   T   T   T
  7.6339817730303441  0.0000000000000000  3.0267963546061436   F   F   F
  3.0535927092121389  8.1087691850896277  1.5000000000000007   F   F   F
  6.1071798191152400  8.1087696939453817  7.6477123913251059   T   T   T
  7.6339958348407437 10.8116753178488114  6.1165754028966104   T   T   T
  6.1071865065550099  8.1087595235980423  4.5655896827133216   T   T   T
  1.5268024699423453  5.4058424679909445  6.1165853364666694   T   T   T
  7.6339817730303450  5.4058461233930855  3.0267963546061445   F   F   F
  6.1071854184242760  8.1087691850896277  1.5000000000000007   F   F   F
  0.0000087172733662  8.1087757898991430  7.6476924515042608   T   T   T
  6.1071868241094851  2.7029293569126196 10.7502587845266451   T   T   T
  1.5268056130361234  5.4058440739304938  9.1279367032034386   T   T   T
  7.6339747286979920  0.0000124177629987  9.1279236263307109   T   T   T
  6.1071866941412498  2.7029133284607494  7.6476971441017563   T   T   T
 12.2143655221967258  8.1087844230473554 10.7502764256462129   T   T   T
  6.1071859220111069  2.7029252272551245  4.5655872355172029   T   T   T
  3.0535827347455355  8.1087699934007240  7.6477118221940064   T   T   T
  0.0000007873565387  8.1087660014133878  4.5655986910440776   T   T   T
  4.5803816379568998  5.4058453358236029  9.1279424378569090   T   T   T
  9.1607781276364122  2.7029230616965427  1.5000000000000007   F   F   F
  3.0535830218840379  8.1087673707768531 10.7502748876771363   T   T   T
  0.0000000000000013  8.1087691850896277  1.5000000000000004   F   F   F
  9.1607964622016986  8.1087890442561470 10.7503235583192023   T   T   T
  1.5267963546060688  0.0000000000000000  3.0267963546061436   F   F   F
  1.5267963546060697  5.4058461233930855  3.0267963546061436   F   F   F
 10.6875744822424821  0.0000000000000000  3.0267963546061436   F   F   F
 10.6875804194582464  5.4058422201311505  9.1279220922844360   T   T   T
  9.1607790000576941  2.7029245036027802  4.5655969793821951   T   T   T
 10.6875628001706033 10.8116800611950161  6.1165765871433697   T   T   T
  9.1607777560785717  8.1087560742784230  4.5655940583665000   T   T   T
  1.5267867719048982  0.0000006718532050  6.1165829189610808   T   T   T
  9.1607920755442169  8.1087797092373961  7.6477236550115428   T   T   T
  9.1607693019771901  2.7029072357357968  7.6476881136110508   T   T   T
 10.6875672451503547  0.0000114663699585  9.1279214933004145   T   T   T
  0.0000013490653699  2.7029270536903862  4.5656064121094850   T   T   T
  1.5267771422161769 10.8116806995372272  9.1279288525746480   T   T   T
  9.1607788158312751  2.7029395803082963 10.7502472659701525   T   T   T
  6.1071926568101569  8.1088021322978072 10.7503200668339041   T   T   T
  0.0000013653127953  2.7029157204616996  7.6477043945708818   T   T   T
 10.6875728014071516  5.4058481628522541  6.1165776418946409   T   T   T
  9.1607781276364140  8.1087691850896277  1.5000000000000009   F   F   F
 10.6875744822424821  5.4058461233930855  3.0267963546061445   F   F   F
 12.2143660152752354  2.7029021493117940 10.7503190763835352   T   T   T
  4.5803993426001721  0.0000031038381533  9.1279309109349196   T   T   T
  7.6339785603889077  5.4058517926900738  6.1165783310453170   T   T   T
  7.6339614180922224  5.4058574095850069  9.1279266743044207   T   T   T
  4.5803890638182061  0.0000000000000000  3.0267963546061436   F   F   F
  0.0000000000000004  2.7029230616965427  1.5000000000000000   F   F   F
Cartesian
  0.0000000000000000  0.0000000000000000  0.0000000000000000
  0.0000000000000000  0.0000000000000000  0.0000000000000000
  0.0000000000000000  0.0000000000000000  0.0000000000000000
  0.0000000000000000  0.0000000000000000  0.0000000000000000
  0.0000000000000000  0.0000000000000000  0.0000000000000000
  0.0000000000000000  0.0000000000000000  0.0000000000000000
  0.0000000000000000  0.0000000000000000  0.0000000000000000
  0.0000000000000000  0.0000000000000000  0.0000000000000000
  0.0000000000000000  0.0000000000000000  0.0000000000000000
  0.0000000000000000  0.0000000000000000  0.0000000000000000
  0.0000000000000000  0.0000000000000000  0.0000000000000000
  0.0000000000000000  0.0000000000000000  0.0000000000000000
  0.0000000000000000  0.0000000000000000  0.0000000000000000
  0.0000000000000000  0.0000000000000000  0.0000000000000000
  0.0000000000000000  0.0000000000000000  0.0000000000000000
  0.0000000000000000  0.0000000000000000  0.0000000000000000
  0.0000000000000000  0.0000000000000000  0.0000000000000000
  0.0000000000000000  0.0000000000000000  0.0000000000000000
  0.0000000000000000  0.0000000000000000  0.0000000000000000
  0.0000000000000000  0.0000000000000000  0.0000000000000000
  0.0000000000000000  0.0000000000000000  0.0000000000000000
  0.0000000000000000  0.0000000000000000  0.0000000000000000
  0.0000000000000000  0.0000000000000000  0.0000000000000000
  0.0000000000000000  0.0000000000000000  0.0000000000000000
  0.0000000000000000  0.0000000000000000  0.0000000000000000
  0.0000000000000000  0.0000000000000000  0.0000000000000000
  0.0000000000000000  0.0000000000000000  0.0000000000000000
  0.0000000000000000  0.0000000000000000  0.0000000000000000
  0.0000000000000000  0.0000000000000000  0.0000000000000000
  0.0000000000000000  0.0000000000000000  0.0000000000000000
  0.0000000000000000  0.0000000000000000  0.0000000000000000
  0.0000000000000000  0.0000000000000000  0.0000000000000000
  0.0000000000000000  0.0000000000000000  0.0000000000000000
  0.0000000000000000  0.0000000000000000  0.0000000000000000
  0.0000000000000000  0.0000000000000000  0.0000000000000000
  0.0000000000000000  0.0000000000000000  0.0000000000000000
  0.0000000000000000  0.0000000000000000  0.0000000000000000
  0.0000000000000000  0.0000000000000000  0.0000000000000000
  0.0000000000000000  0.0000000000000000  0.0000000000000000
  0.0000000000000000  0.0000000000000000  0.0000000000000000
  0.0000000000000000  0.0000000000000000  0.0000000000000000
  0.0000000000000000  0.0000000000000000  0.0000000000000000
  0.0000000000000000  0.0000000000000000  0.0000000000000000
  0.0000000000000000  0.0000000000000000  0.0000000000000000
  0.0000000000000000  0.0000000000000000  0.0000000000000000
  0.0000000000000000  0.0000000000000000  0.0000000000000000
  0.0000000000000000  0.0000000000000000  0.0000000000000000
  0.0000000000000000  0.0000000000000000  0.0000000000000000
  0.0000000000000000  0.0000000000000000  0.0000000000000000
  0.0000000000000000  0.0000000000000000  0.0000000000000000
  0.0000000000000000  0.0000000000000000  0.0000000000000000
  0.0000000000000000  0.0000000000000000  0.0000000000000000
  0.0000000000000000  0.0000000000000000  0.0000000000000000
  0.0000000000000000  0.0000000000000000  0.0000000000000000
  0.0000000000000000  0.0000000000000000  0.0000000000000000
  0.0000000000000000  0.0000000000000000  0.0000000000000000
  0.0000000000000000  0.0000000000000000  0.0000000000000000
  0.0000000000000000  0.0000000000000000  0.0000000000000000
  0.0000000000000000  0.0000000000000000  0.0000000000000000
  0.0000000000000000  0.0000000000000000  0.0000000000000000
  0.0000000000000000  0.0000000000000000  0.0000000000000000
  0.0000000000000000  0.0000000000000000  0.0000000000000000
  0.0000000000000000  0.0000000000000000  0.0000000000000000
  0.0000000000000000  0.0000000000000000  0.0000000000000000
  0.0000000000000000  0.0000000000000000  0.0000000000000000
  0.0000000000000000  0.0000000000000000  0.0000000000000000
  0.0000000000000000  0.0000000000000000  0.0000000000000000
  0.0000000000000000  0.0000000000000000  0.0000000000000000
  0.0000000000000000  0.0000000000000000  0.0000000000000000
  0.0000000000000000  0.0000000000000000  0.0000000000000000
  0.0000000000000000  0.0000000000000000  0.0000000000000000
  0.0000000000000000  0.0000000000000000  0.0000000000000000
  0.0000000000000000  0.0000000000000000  0.0000000000000000
  0.0000000000000000  0.0000000000000000  0.0000000000000000
  0.0000000000000000  0.0000000000000000  0.0000000000000000
  0.0000000000000000  0.0000000000000000  0.0000000000000000
  0.0000000000000000  0.0000000000000000  0.0000000000000000
  0.0000000000000000  0.0000000000000000  0.0000000000000000
  0.0000000000000000  0.0000000000000000  0.0000000000000000
  0.0000000000000000  0.0000000000000000  0.0000000000000000
  0.0000000000000000  0.0000000000000000  0.0000000000000000
  0.0000000000000000  0.0000000000000000  0.0000000000000000
  0.0000000000000000  0.0000000000000000  0.0000000000000000
  0.0000000000000000  0.0000000000000000  0.0000000000000000
  0.0000000000000000  0.0000000000000000  0.0000000000000000
  0.0000000000000000  0.0000000000000000  0.0000000000000000
  0.0000000000000000  0.0000000000000000  0.0000000000000000
  0.0000000000000000  0.0000000000000000  0.0000000000000000
  0.0000000000000000  0.0000000000000000  0.0000000000000000
  0.0000000000000000  0.0000000000000000  0.0000000000000000
  0.0000000000000000  0.0000000000000000  0.0000000000000000
  0.0000000000000000  0.0000000000000000  0.0000000000000000
  0.0000000000000000  0.0000000000000000  0.0000000000000000
  0.0000000000000000  0.0000000000000000  0.0000000000000000
  0.0000000000000000  0.0000000000000000  0.0000000000000000
  0.0000000000000000  0.0000000000000000  0.0000000000000000
  0.0000000000000000  0.0000000000000000  0.0000000000000000
  0.0000000000000000  0.0000000000000000  0.0000000000000000
  0.0000000000000000  0.0000000000000000  0.0000000000000000
  0.0000000000000000  0.0000000000000000  0.0000000000000000
  0.0000000000000000  0.0000000000000000  0.0000000000000000
  0.0000000000000000  0.0000000000000000  0.0000000000000000
  0.0000000000000000  0.0000000000000000  0.0000000000000000
  0.0000000000000000  0.0000000000000000  0.0000000000000000
