Automatic mesh
0
Gamma
  12  12  10
  0  0  0
