C  H  O 
 1.0000000000000000
    20.0000000000000000    0.0000000000000000    0.0000000000000000
     0.0000000000000000   20.0000000000000000    0.0000000000000000
     0.0000000000000000    0.0000000000000000   20.0000000000000000
 C   H   O  
   1   4   1
Direct
  0.4871565096838691  0.5000000000000000  0.4642500000000001
  0.5326760451337668  0.5000000000000000  0.5205193764925555
  0.5385304709483928  0.5000000000000000  0.4824424738282406
  0.4614695290516073  0.5444911555481153  0.4824424738282406
  0.4614695290516073  0.4555088444518847  0.4824424738282406
  0.4871565096838691  0.5000000000000000  0.5357500000000001
