C  O  Pd
 1.0000000000000000
    12.3034736924171124    0.0000000000000000    0.0000000000000000
     0.0000000000000000   12.3034736924171142    0.0000000000000000
     0.0000000000000000    0.0000000000000000   29.1654207465942434
 C   O   Pd 
   1  17  96
Selective dynamics
Direct
  0.7117579635018649  0.3224746643951905  0.4022576945684823   T   T   T
  0.6872646078961320  0.9387753389179541  0.3203626117091218   T   T   T
  0.6841489692686309  0.1269695845654111  0.3639085107674320   T   T   T
  0.1843514071798107  0.6339734395221164  0.3612466588611238   T   T   T
  0.4375212418468921  0.1307283387637096  0.3624664835098766   T   T   T
  0.4333836366687026  0.4366416731516012  0.3214571114478253   T   T   T
  0.1873069182384252  0.9401432256749287  0.3206925100870264   T   T   T
  0.1847093308497913  0.1333898605666335  0.3616855459637546   T   T   T
  0.1872566670673660  0.4394238254549418  0.3205987489474805   T   T   T
  0.7330653197805976  0.3436598548591770  0.4397711730543961   T   T   T
  0.6858653707701705  0.4432341266793254  0.3196952195292428   T   T   T
  0.4360196875673934  0.6321568788248847  0.3626144165932603   T   T   T
  0.4331780518129936  0.9363662478876673  0.3209806817805747   T   T   T
  0.6849728825976454  0.6344595145464572  0.3614142675310832   T   T   T
  0.9337818571584028  0.9359078297186626  0.3212371070368053   T   T   T
  0.9372803867405993  0.1302880193590531  0.3626710816185914   T   T   T
  0.9377706384882740  0.6313013636088541  0.3624621867418761   T   T   T
  0.9337551706001713  0.4358617435635852  0.3213856779224133   T   T   T
  0.1499999999999986  0.1499999999999986  0.0514307684100572   F   F   F
  0.8500000000000014  0.0499999999999972  0.0514307684100572   F   F   F
  0.9005371233130712  0.9032621953219366  0.2534203262513560   T   T   T
  0.1507236091547503  0.1489864169829936  0.1853656493630883   F   F   F
  0.2999999999999972  0.2000000000000028  0.1181313319610595   F   F   F
  0.0000000000000000  0.1000000000000014  0.1181313319610595   F   F   F
  0.9500000000000028  0.2500000000000000  0.0514307684100572   F   F   F
  0.2499707131254955  0.8492987964248615  0.1855932700389138   T   T   T
  0.8485330413376032  0.0512636254534289  0.1852339871257567   F   F   F
  0.9486127127564162  0.2506768571014975  0.1843632683220324   F   F   F
  0.1000000000000014  0.2999999999999972  0.1181313319610595   F   F   F
  0.5596142061703159  0.5403683343055379  0.3398724762587362   T   T   T
  0.0603737935756987  0.0381250597861416  0.3399778037922336   T   T   T
  0.0959203452807558  0.2966227667795284  0.2518791776254871   T   T   T
  0.0499999999999972  0.4500000000000027  0.0514307684100572   F   F   F
  0.2000000000000028  0.5000000000000000  0.1181313319610595   F   F   F
  0.0491193131827514  0.4512444611448465  0.1844626448581111   F   F   F
  0.1956896859493587  0.4985722890240133  0.2540313592979307   T   T   T
  0.2977143295966904  0.1995241694727441  0.2569629417736382   T   T   T
  0.9955611347276845  0.1063001710774490  0.2536176090317053   T   T   T
  0.1877601684560244  0.2783939067443786  0.3346311350943404   T   T   T
  0.3485341556527256  0.0512641898857512  0.1852337169709379   F   F   F
  0.5000000000000000  0.1000000000000014  0.1181313319610595   F   F   F
  0.9375757148055572  0.7722922058408894  0.3317131314326223   T   T   T
  0.3998521186795634  0.9030879124345765  0.2533159053537357   T   T   T
  0.1878121918301809  0.7792645883811303  0.3345346487515731   T   T   T
  0.3114683620396271  0.0412700366752052  0.3401731865300428   T   T   T
  0.8117111705047056  0.5427373017532638  0.3394317059370903   T   T   T
  0.6875157466885389  0.2816653232044902  0.3403447014288753   T   T   T
  0.9395965247174756  0.2711037933340904  0.3312552017264346   T   T   T
  0.4361577218516736  0.7726802668501319  0.3315203699178761   T   T   T
  0.0604005383116430  0.5382503366198716  0.3397826250803976   T   T   T
  0.6881611418422159  0.7787079847233420  0.3342274198479157   T   T   T
  0.3111502830698447  0.5413671310195813  0.3400687448502492   T   T   T
  0.5600614850006456  0.0374541646459812  0.3395438566674104   T   T   T
  0.8999999999999986  0.8999999999999986  0.1181313319610595   F   F   F
  0.9004069193855476  0.4031740297696895  0.2535809915957780   T   T   T
  0.2499682108142002  0.3493012120833129  0.1855937382329413   T   T   T
  0.2500000000000000  0.3500000000000014  0.0514307684100572   F   F   F
  0.2500000000000000  0.8500000000000014  0.0514307684100572   F   F   F
  0.4356557277139348  0.2722011842174415  0.3316801423395374   T   T   T
  0.1507252829162628  0.6489864416498848  0.1853659281879895   F   F   F
  0.4500000000000028  0.2500000000000000  0.0514307684100572   F   F   F
  0.4967933912956365  0.1066571024493255  0.2533418526021805   T   T   T
  0.3500000000000014  0.5499999999999972  0.0514307684100572   F   F   F
  0.8115820133961383  0.0400796733355623  0.3401841132172288   T   T   T
  0.8999999999999986  0.3999999999999986  0.1181313319610595   F   F   F
  0.1946310468124431 -0.0010955289197002  0.2540208689584663   T   T   T
  0.2977839356853225  0.6997114386274644  0.2570726039336154   T   T   T
  0.7500000000000000  0.8500000000000014  0.0514307684100572   F   F   F
  0.7985367750441871  0.7003560789316037  0.2567910382762849   T   T   T
  0.2999999999999972  0.7000000000000028  0.1181313319610595   F   F   F
  0.6000000000000014  0.2999999999999972  0.1181313319610595   F   F   F
  0.7999999999999972  0.7000000000000028  0.1181313319610595   F   F   F
  0.6952088281836092 -0.0005203909362449  0.2539486738410794   T   T   T
  0.5491182374295687  0.9512475927721618  0.1844623188205349   F   F   F
  0.7000000000000027  0.0000000000000000  0.1181313319610595   F   F   F
  0.5499999999999972  0.9500000000000028  0.0514307684100572   F   F   F
  0.5953359457179587  0.7966436095315464  0.2518317878197888   T   T   T
  0.6507236918031661  0.6489854869807887  0.1853661340816861   F   F   F
  0.6499999999999986  0.6499999999999986  0.0514307684100572   F   F   F
  0.6000000000000014  0.7999999999999972  0.1181313319610595   F   F   F
  0.5499999999999972  0.4500000000000027  0.0514307684100572   F   F   F
  0.4486122021981009  0.2506766379109669  0.1843629363752118   F   F   F
  0.5983776639198845  0.2966884659911017  0.2540494152317998   T   T   T
  0.5000000000000000  0.6000000000000014  0.1181313319610595   F   F   F
  0.3485320028910852  0.5512631916718084  0.1852336449463447   F   F   F
  0.4964936450125072  0.6055464921131757  0.2533318403368122   T   T   T
  0.4500000000000028  0.7500000000000000  0.0514307684100572   F   F   F
  0.4486144413896602  0.7506743341769924  0.1843622545089304   F   F   F
  0.1499999999999986  0.6499999999999986  0.0514307684100572   F   F   F
  0.9500000000000028  0.7500000000000000  0.0514307684100572   F   F   F
  0.0491177240126065  0.9512405474851490  0.1844615703293516   F   F   F
  0.7499668075026139  0.8492990416203603  0.1855918419518905   T   T   T
  0.2000000000000028  0.0000000000000000  0.1181313319610595   F   F   F
  0.0499999999999972  0.9500000000000028  0.0514307684100572   F   F   F
  0.0957153936816448  0.7967592000724577  0.2519510620307538   T   T   T
  0.9486106854241280  0.7506756416198153  0.1843625136127240   F   F   F
  0.3999999999999986  0.8999999999999986  0.1181313319610595   F   F   F
  0.9971142114823394  0.6057576573058442  0.2534928863710029   T   T   T
  0.8485338373677122  0.5512634687110046  0.1852339858465592   F   F   F
  0.0000000000000000  0.6000000000000014  0.1181313319610595   F   F   F
  0.8500000000000014  0.5499999999999972  0.0514307684100572   F   F   F
  0.4014981692222607  0.4020684658360258  0.2535837499123622   T   T   T
  0.7499688545785510  0.3493009249718623  0.1855923550188662   T   T   T
  0.3999999999999986  0.3999999999999986  0.1181313319610595   F   F   F
  0.7500000000000000  0.3500000000000014  0.0514307684100572   F   F   F
  0.7961533672512516  0.2010619303413275  0.2582169875815895   T   T   T
  0.6507246110173561  0.1489888581776777  0.1853660239556655   F   F   F
  0.7999999999999972  0.2000000000000028  0.1181313319610595   F   F   F
  0.6499999999999986  0.1499999999999986  0.0514307684100572   F   F   F
  0.6956237643259782  0.4993772715033064  0.2531168148572375   T   T   T
  0.5491175178526683  0.4512445656232251  0.1844618875770611   F   F   F
  0.7000000000000027  0.5000000000000000  0.1181313319610595   F   F   F
  0.3500000000000014  0.0499999999999972  0.0514307684100572   F   F   F
  0.1000000000000014  0.7999999999999972  0.1181313319610595   F   F   F
Cartesian
  0.0000000000000000  0.0000000000000000  0.0000000000000000
  0.0000000000000000  0.0000000000000000  0.0000000000000000
  0.0000000000000000  0.0000000000000000  0.0000000000000000
  0.0000000000000000  0.0000000000000000  0.0000000000000000
  0.0000000000000000  0.0000000000000000  0.0000000000000000
  0.0000000000000000  0.0000000000000000  0.0000000000000000
  0.0000000000000000  0.0000000000000000  0.0000000000000000
  0.0000000000000000  0.0000000000000000  0.0000000000000000
  0.0000000000000000  0.0000000000000000  0.0000000000000000
  0.0000000000000000  0.0000000000000000  0.0000000000000000
  0.0000000000000000  0.0000000000000000  0.0000000000000000
  0.0000000000000000  0.0000000000000000  0.0000000000000000
  0.0000000000000000  0.0000000000000000  0.0000000000000000
  0.0000000000000000  0.0000000000000000  0.0000000000000000
  0.0000000000000000  0.0000000000000000  0.0000000000000000
  0.0000000000000000  0.0000000000000000  0.0000000000000000
  0.0000000000000000  0.0000000000000000  0.0000000000000000
  0.0000000000000000  0.0000000000000000  0.0000000000000000
  0.0000000000000000  0.0000000000000000  0.0000000000000000
  0.0000000000000000  0.0000000000000000  0.0000000000000000
  0.0000000000000000  0.0000000000000000  0.0000000000000000
  0.0000000000000000  0.0000000000000000  0.0000000000000000
  0.0000000000000000  0.0000000000000000  0.0000000000000000
  0.0000000000000000  0.0000000000000000  0.0000000000000000
  0.0000000000000000  0.0000000000000000  0.0000000000000000
  0.0000000000000000  0.0000000000000000  0.0000000000000000
  0.0000000000000000  0.0000000000000000  0.0000000000000000
  0.0000000000000000  0.0000000000000000  0.0000000000000000
  0.0000000000000000  0.0000000000000000  0.0000000000000000
  0.0000000000000000  0.0000000000000000  0.0000000000000000
  0.0000000000000000  0.0000000000000000  0.0000000000000000
  0.0000000000000000  0.0000000000000000  0.0000000000000000
  0.0000000000000000  0.0000000000000000  0.0000000000000000
  0.0000000000000000  0.0000000000000000  0.0000000000000000
  0.0000000000000000  0.0000000000000000  0.0000000000000000
  0.0000000000000000  0.0000000000000000  0.0000000000000000
  0.0000000000000000  0.0000000000000000  0.0000000000000000
  0.0000000000000000  0.0000000000000000  0.0000000000000000
  0.0000000000000000  0.0000000000000000  0.0000000000000000
  0.0000000000000000  0.0000000000000000  0.0000000000000000
  0.0000000000000000  0.0000000000000000  0.0000000000000000
  0.0000000000000000  0.0000000000000000  0.0000000000000000
  0.0000000000000000  0.0000000000000000  0.0000000000000000
  0.0000000000000000  0.0000000000000000  0.0000000000000000
  0.0000000000000000  0.0000000000000000  0.0000000000000000
  0.0000000000000000  0.0000000000000000  0.0000000000000000
  0.0000000000000000  0.0000000000000000  0.0000000000000000
  0.0000000000000000  0.0000000000000000  0.0000000000000000
  0.0000000000000000  0.0000000000000000  0.0000000000000000
  0.0000000000000000  0.0000000000000000  0.0000000000000000
  0.0000000000000000  0.0000000000000000  0.0000000000000000
  0.0000000000000000  0.0000000000000000  0.0000000000000000
  0.0000000000000000  0.0000000000000000  0.0000000000000000
  0.0000000000000000  0.0000000000000000  0.0000000000000000
  0.0000000000000000  0.0000000000000000  0.0000000000000000
  0.0000000000000000  0.0000000000000000  0.0000000000000000
  0.0000000000000000  0.0000000000000000  0.0000000000000000
  0.0000000000000000  0.0000000000000000  0.0000000000000000
  0.0000000000000000  0.0000000000000000  0.0000000000000000
  0.0000000000000000  0.0000000000000000  0.0000000000000000
  0.0000000000000000  0.0000000000000000  0.0000000000000000
  0.0000000000000000  0.0000000000000000  0.0000000000000000
  0.0000000000000000  0.0000000000000000  0.0000000000000000
  0.0000000000000000  0.0000000000000000  0.0000000000000000
  0.0000000000000000  0.0000000000000000  0.0000000000000000
  0.0000000000000000  0.0000000000000000  0.0000000000000000
  0.0000000000000000  0.0000000000000000  0.0000000000000000
  0.0000000000000000  0.0000000000000000  0.0000000000000000
  0.0000000000000000  0.0000000000000000  0.0000000000000000
  0.0000000000000000  0.0000000000000000  0.0000000000000000
  0.0000000000000000  0.0000000000000000  0.0000000000000000
  0.0000000000000000  0.0000000000000000  0.0000000000000000
  0.0000000000000000  0.0000000000000000  0.0000000000000000
  0.0000000000000000  0.0000000000000000  0.0000000000000000
  0.0000000000000000  0.0000000000000000  0.0000000000000000
  0.0000000000000000  0.0000000000000000  0.0000000000000000
  0.0000000000000000  0.0000000000000000  0.0000000000000000
  0.0000000000000000  0.0000000000000000  0.0000000000000000
  0.0000000000000000  0.0000000000000000  0.0000000000000000
  0.0000000000000000  0.0000000000000000  0.0000000000000000
  0.0000000000000000  0.0000000000000000  0.0000000000000000
  0.0000000000000000  0.0000000000000000  0.0000000000000000
  0.0000000000000000  0.0000000000000000  0.0000000000000000
  0.0000000000000000  0.0000000000000000  0.0000000000000000
  0.0000000000000000  0.0000000000000000  0.0000000000000000
  0.0000000000000000  0.0000000000000000  0.0000000000000000
  0.0000000000000000  0.0000000000000000  0.0000000000000000
  0.0000000000000000  0.0000000000000000  0.0000000000000000
  0.0000000000000000  0.0000000000000000  0.0000000000000000
  0.0000000000000000  0.0000000000000000  0.0000000000000000
  0.0000000000000000  0.0000000000000000  0.0000000000000000
  0.0000000000000000  0.0000000000000000  0.0000000000000000
  0.0000000000000000  0.0000000000000000  0.0000000000000000
  0.0000000000000000  0.0000000000000000  0.0000000000000000
  0.0000000000000000  0.0000000000000000  0.0000000000000000
  0.0000000000000000  0.0000000000000000  0.0000000000000000
  0.0000000000000000  0.0000000000000000  0.0000000000000000
  0.0000000000000000  0.0000000000000000  0.0000000000000000
  0.0000000000000000  0.0000000000000000  0.0000000000000000
  0.0000000000000000  0.0000000000000000  0.0000000000000000
  0.0000000000000000  0.0000000000000000  0.0000000000000000
  0.0000000000000000  0.0000000000000000  0.0000000000000000
  0.0000000000000000  0.0000000000000000  0.0000000000000000
  0.0000000000000000  0.0000000000000000  0.0000000000000000
  0.0000000000000000  0.0000000000000000  0.0000000000000000
  0.0000000000000000  0.0000000000000000  0.0000000000000000
  0.0000000000000000  0.0000000000000000  0.0000000000000000
  0.0000000000000000  0.0000000000000000  0.0000000000000000
  0.0000000000000000  0.0000000000000000  0.0000000000000000
  0.0000000000000000  0.0000000000000000  0.0000000000000000
  0.0000000000000000  0.0000000000000000  0.0000000000000000
  0.0000000000000000  0.0000000000000000  0.0000000000000000
  0.0000000000000000  0.0000000000000000  0.0000000000000000
  0.0000000000000000  0.0000000000000000  0.0000000000000000
