C  O  Pd
 1.0000000000000000
     9.5317092920176041    0.0000000000000000    0.0000000000000000
     0.0000000000000000   12.8477517144159332    0.0000000000000000
     0.0000000000000000    0.0000000000000000   32.1028443220921673
 C   O   Pd 
   1  97  48
Selective dynamics
Direct
  0.7063100788230959  0.2638657620012543  0.4867854198136356   T   T   T
  0.8314797056188717  0.0379272146236114  0.3978940249010897   T   T   T
  0.8333333333333357  0.2789897956032235  0.0851486940133555   F   F   F
  0.3324335295259654  0.9018841045561020  0.3489343384754335   T   T   T
  0.3320584084984828  0.8747438328725501  0.4259669700943228   T   T   T
  0.4991983799677544  0.7282075276026441  0.3903565768884876   T   T   T
  0.5003829345159414  0.5377858781252887  0.3976960242755701   T   T   T
  0.3332383411711204  0.6460338396579948  0.2475118147097606   T   T   T
  0.3329178409842931  0.6102042861723703  0.3239144595962637   T   T   T
  0.4994916245094534  0.9744199990858011  0.2780353061849850   T   T   T
  0.3327730206187917  0.1455488924000465  0.2476955843823773   T   T   T
  0.3280259633932691  0.4071200817473862  0.3478296526124505   T   T   T
  0.3333318648019943  0.8750000864356643  0.2250895420487288   F   F   F
  0.4999976377976332  0.7209531764862156  0.1895758217978223   F   F   F
  0.3333333333333357  0.6250000000000000  0.0467248317610185   F   F   F
  0.3333333333333357  0.6250000000000000  0.1235725562656853   F   F   F
  0.5000000000000000  0.9710102043967765  0.0851486940133555   F   F   F
  0.5000000000000000  0.7789897956032235  0.0851486940133555   F   F   F
  0.6653911579301752  0.8742211183363183  0.4260581505253261   T   T   T
  0.3315118515244839  0.3768114667596349  0.4256235304419696   T   T   T
  0.5008920627515348  0.2287723941102605  0.3927326687705641   T   T   T
  0.3333333333333357  0.8750000000000000  0.1467763379882641   F   F   F
  0.4996476917747782  0.7827022170466758  0.2966873859575386   T   T   T
  0.4999976639328576  0.5290466686199733  0.1895761637574985   F   F   F
  0.6859721148042617  0.3511639264430270  0.4772395929263824   T   T   T
  0.8319673431351349  0.7284320927071073  0.3902713218795867   T   T   T
  0.6664105534287630  0.6459997125658068  0.2473952060441774   T   T   T
  0.8309929809397174  0.5380191884375293  0.3977708004547272   T   T   T
  0.8333333333333357  0.4710102043967765  0.0851486940133555   F   F   F
  0.8333339558353259  0.0290462541212847  0.1895758119370538   F   F   F
  0.6666666666666643  0.1250000000000000  0.1235725562656853   F   F   F
  0.3333333333333357  0.3750000000000000  0.1467763379882641   F   F   F
  0.8327499262534541  0.9744527875499978  0.2780716786373949   T   T   T
  0.4988048538146028  0.2826281744102292  0.2972199477793454   T   T   T
  0.6661391791270660  0.6054318168239839  0.3238715610980967   T   T   T
  0.8333333409382341  0.7209531152421449  0.1895756052193645   F   F   F
  0.8326050169878064  0.7827145750013323  0.2967286932446421   T   T   T
  0.6666666666666643  0.8750000000000000  0.1467763379882641   F   F   F
  0.6666655358647100  0.8750000108504334  0.2250883423864175   F   F   F
  0.8333333008508301  0.5290468981117665  0.1895759154731361   F   F   F
  0.6666666666666643  0.6250000000000000  0.0467248317610185   F   F   F
  0.6666666666666643  0.6250000000000000  0.1235725562656853   F   F   F
  0.8333333333333357  0.9710102043967765  0.0851486940133555   F   F   F
  0.8333333333333357  0.7789897956032235  0.0851486940133555   F   F   F
  0.6654504037973923  0.3907869412760764  0.3516225690471039   T   T   T
  0.4999278500530512  0.4741293126208963  0.2781577578992091   T   T   T
  0.4990742503341489  0.0377919082385417  0.3979585933903952   T   T   T
  0.8295656712206271  0.2292328966183589  0.3928307148990361   T   T   T
  0.3328166375905692  0.1100001964295898  0.3244748978520372   T   T   T
  0.6662403910327637  0.1454150570915980  0.2475418233589760   T   T   T
  0.8323375042351457  0.4741256615864475  0.2781731361377996   T   T   T
  0.8332979153748004  0.2826677086369518  0.2974198971513519   T   T   T
  0.6666666666666643  0.3750000000000000  0.1467763379882641   F   F   F
  0.6666664721965994  0.3750001394610554  0.2250885421256194   F   F   F
  0.8333336160653568  0.2209531548581329  0.1895755782756444   F   F   F
  0.6666666666666643  0.1250000000000000  0.0467248317610185   F   F   F
  0.3333326882537072  0.3749997926392740  0.2250885499289598   F   F   F
  0.6656435036466908  0.9008658402320043  0.3490080414145157   T   T   T
  0.4999980417944865  0.0290462347966568  0.1895760715474884   F   F   F
  0.1666659623339084  0.7209538630219027  0.1895756713862576   F   F   F
  0.9993642833130635  0.1454914073130796  0.2477281361160324   T   T   T
  0.1666659175182925  0.5290462010831961  0.1895759780398522   F   F   F
  0.0000000000000000  0.6250000000000000  0.0467248317610185   F   F   F
  0.4999988243319552  0.2209529651499486  0.1895755725505499   F   F   F
  0.1666666666666643  0.9710102043967765  0.0851486940133555   F   F   F
  0.1666666666666643  0.7789897956032235  0.0851486940133555   F   F   F
  0.0032341548765927  0.4072917323404867  0.3478398285328349   T   T   T
  0.9989226886812556  0.3769287900389598  0.4255810882530004   T   T   T
  0.1652171266684945  0.2283279665431932  0.3909555197101942   T   T   T
  0.1653003862368342  0.0386622810379504  0.3978996101760762   T   T   T
 -0.0009195569315404  0.1101113553795047  0.3245136789084297   T   T   T
  0.0000003549571299  0.8750000107713112  0.2250882234763902   F   F   F
  0.1661806198986059  0.4746749691596847  0.2770592745097661   T   T   T
  0.7248756872349258  0.1763358390743786  0.4961249400059545   T   T   T
  0.0000000000000000  0.3750000000000000  0.1467763379882641   F   F   F
  0.1660720505841465  0.2830670483231427  0.2965475022714859   T   T   T
  0.0000007107164886  0.3749999603060230  0.2250885125878732   F   F   F
  0.1666663027958614  0.2209539505437224  0.1895756072453514   F   F   F
  0.1666663400494306  0.0290460185855896  0.1895759024921872   F   F   F
  0.0000000000000000  0.1250000000000000  0.0467248317610185   F   F   F
  0.0000000000000000  0.1250000000000000  0.1235725562656853   F   F   F
  0.1666666666666643  0.4710102043967765  0.0851486940133555   F   F   F
  0.1666666666666643  0.2789897956032235  0.0851486940133555   F   F   F
  0.0000000000000000  0.8750000000000000  0.1467763379882641   F   F   F
  0.1661392858334209  0.7831143545293922  0.2966846741854690   T   T   T
  0.0000000000000000  0.6250000000000000  0.1235725562656853   F   F   F
  0.6660374157514931  0.1094716955961155  0.3240935275003247   T   T   T
  0.1655970407137164  0.5393185795127801  0.3980242762767233   T   T   T
  0.5000000000000000  0.2789897956032235  0.0851486940133555   F   F   F
  0.1657635663597180  0.7283199716543574  0.3904696978151155   T   T   T
  0.9990169631933237  0.8745337739367552  0.4259644395268048   T   T   T
  0.3333333333333357  0.1250000000000000  0.1235725562656853   F   F   F
  0.9994150173114574  0.6460464459197907  0.2475151245204334   T   T   T
  0.5000000000000000  0.4710102043967765  0.0851486940133555   F   F   F
 -0.0012713946167001  0.9016687765010633  0.3489416610763230   T   T   T
 -0.0005203574003533  0.6100023249894693  0.3239514567118133   T   T   T
  0.1660273176680858  0.9745439122330838  0.2781815296777917   T   T   T
  0.3333333333333357  0.1250000000000000  0.0467248317610185   F   F   F
  0.6661311798553250  0.8791398355197358  0.2876223786398627   T   T   T
  0.8325311200021609  0.6287867302236857  0.2855947274776000   T   T   T
  0.3328681434326988  0.8792324270627397  0.2876265122529402   T   T   T
  0.6666655568862668  0.6249997720375131  0.1847577838516319   F   F   F
  0.3327652094439094  0.1320271204151016  0.3863167653114173   T   T   T
  0.8333333333333357  0.6250000000000000  0.0851486940133555   F   F   F
  0.6666666666666643  0.8750000000000000  0.0851486940133555   F   F   F
  0.8333311666192106  0.8749995704976669  0.1858642171120021   F   F   F
  0.1659869811355352  0.1289931211879075  0.2859985153801313   T   T   T
  0.1666666847735583  0.3750001305958783  0.1858643915636921   F   F   F
  0.6656478354648645  0.6333962782956550  0.3851168546006453   T   T   T
  0.3324037104222187  0.3790915642957057  0.2871935633800848   T   T   T
  0.4992877570067918  0.1289214845136974  0.2858393834336539   T   T   T
  0.8322509263661427  0.8835859636985856  0.3878087652635138   T   T   T
  0.3333354546060130  0.1249999476819220  0.1847578122735502   F   F   F
  0.0000000000000000  0.3750000000000000  0.0851486940133555   F   F   F
  0.9999970987911158  0.1250000184490408  0.1847578466783704   F   F   F
  0.3333333333333357  0.3750000000000000  0.0851486940133555   F   F   F
  0.1654402485125555  0.3844082044229938  0.3876610850015692   T   T   T
  0.4936134445706211  0.3835433308568071  0.3872619814915922   T   T   T
  0.1666666666666643  0.1250000000000000  0.0851486940133555   F   F   F
  0.5000014304295636  0.3749999974283293  0.1858644222348644   F   F   F
  0.5000000000000000  0.1250000000000000  0.0851486940133555   F   F   F
  0.1666666666666643  0.6250000000000000  0.0851486940133555   F   F   F
  0.9997767022053260  0.3790766064269733  0.2872104448316303   T   T   T
  0.5000005790671146  0.8749996008049955  0.1858647103970161   F   F   F
  0.3325687076698418  0.6326028534395020  0.3854949059099804   T   T   T
  0.1654483035595328  0.8840419890697384  0.3877104508287277   T   T   T
  0.3333348655297959  0.6249998188937667  0.1847577531331055   F   F   F
  0.9999968754065039  0.6249998164331720  0.1847577848474051   F   F   F
  0.8333333333333357  0.1250000000000000  0.0851486940133555   F   F   F
  0.6666666666666643  0.3750000000000000  0.0851486940133555   F   F   F
  0.1666668975657561  0.8749998441626324  0.1858646099702742   F   F   F
  0.9987004884390170  0.6328094043279221  0.3855044599155570   T   T   T
  0.6652476924426854  0.1309604683513975  0.3858435285258473   T   T   T
  0.6666662687465629  0.1249996349829204  0.1847578301666214   F   F   F
  0.0000000000000000  0.8750000000000000  0.0851486940133555   F   F   F
  0.8328127294439109  0.1289893714559957  0.2858738983957981   T   T   T
  0.6660722662339761  0.3787031926822386  0.2882078658593101   T   T   T
  0.3333333333333357  0.8750000000000000  0.0851486940133555   F   F   F
  0.5000000000000000  0.6250000000000000  0.0851486940133555   F   F   F
  0.9977984774633304  0.1322641863152251  0.3863660517131533   T   T   T
  0.4999801014817614  0.6287779271831953  0.2855630960386633   T   T   T
  0.1662341848028948  0.6292397958912770  0.2855753703826152   T   T   T
  0.8333316115610666  0.3750001538755701  0.1858644410325545   F   F   F
  0.9993591392895957  0.8791741171578717  0.2876109563250141   T   T   T
  0.8372128679440549  0.3839678559260719  0.3871674028244295   T   T   T
  0.4986595248007759  0.8834926041185016  0.3877710337475740   T   T   T
Cartesian
  0.0000000000000000  0.0000000000000000  0.0000000000000000
  0.0000000000000000  0.0000000000000000  0.0000000000000000
  0.0000000000000000  0.0000000000000000  0.0000000000000000
  0.0000000000000000  0.0000000000000000  0.0000000000000000
  0.0000000000000000  0.0000000000000000  0.0000000000000000
  0.0000000000000000  0.0000000000000000  0.0000000000000000
  0.0000000000000000  0.0000000000000000  0.0000000000000000
  0.0000000000000000  0.0000000000000000  0.0000000000000000
  0.0000000000000000  0.0000000000000000  0.0000000000000000
  0.0000000000000000  0.0000000000000000  0.0000000000000000
  0.0000000000000000  0.0000000000000000  0.0000000000000000
  0.0000000000000000  0.0000000000000000  0.0000000000000000
  0.0000000000000000  0.0000000000000000  0.0000000000000000
  0.0000000000000000  0.0000000000000000  0.0000000000000000
  0.0000000000000000  0.0000000000000000  0.0000000000000000
  0.0000000000000000  0.0000000000000000  0.0000000000000000
  0.0000000000000000  0.0000000000000000  0.0000000000000000
  0.0000000000000000  0.0000000000000000  0.0000000000000000
  0.0000000000000000  0.0000000000000000  0.0000000000000000
  0.0000000000000000  0.0000000000000000  0.0000000000000000
  0.0000000000000000  0.0000000000000000  0.0000000000000000
  0.0000000000000000  0.0000000000000000  0.0000000000000000
  0.0000000000000000  0.0000000000000000  0.0000000000000000
  0.0000000000000000  0.0000000000000000  0.0000000000000000
  0.0000000000000000  0.0000000000000000  0.0000000000000000
  0.0000000000000000  0.0000000000000000  0.0000000000000000
  0.0000000000000000  0.0000000000000000  0.0000000000000000
  0.0000000000000000  0.0000000000000000  0.0000000000000000
  0.0000000000000000  0.0000000000000000  0.0000000000000000
  0.0000000000000000  0.0000000000000000  0.0000000000000000
  0.0000000000000000  0.0000000000000000  0.0000000000000000
  0.0000000000000000  0.0000000000000000  0.0000000000000000
  0.0000000000000000  0.0000000000000000  0.0000000000000000
  0.0000000000000000  0.0000000000000000  0.0000000000000000
  0.0000000000000000  0.0000000000000000  0.0000000000000000
  0.0000000000000000  0.0000000000000000  0.0000000000000000
  0.0000000000000000  0.0000000000000000  0.0000000000000000
  0.0000000000000000  0.0000000000000000  0.0000000000000000
  0.0000000000000000  0.0000000000000000  0.0000000000000000
  0.0000000000000000  0.0000000000000000  0.0000000000000000
  0.0000000000000000  0.0000000000000000  0.0000000000000000
  0.0000000000000000  0.0000000000000000  0.0000000000000000
  0.0000000000000000  0.0000000000000000  0.0000000000000000
  0.0000000000000000  0.0000000000000000  0.0000000000000000
  0.0000000000000000  0.0000000000000000  0.0000000000000000
  0.0000000000000000  0.0000000000000000  0.0000000000000000
  0.0000000000000000  0.0000000000000000  0.0000000000000000
  0.0000000000000000  0.0000000000000000  0.0000000000000000
  0.0000000000000000  0.0000000000000000  0.0000000000000000
  0.0000000000000000  0.0000000000000000  0.0000000000000000
  0.0000000000000000  0.0000000000000000  0.0000000000000000
  0.0000000000000000  0.0000000000000000  0.0000000000000000
  0.0000000000000000  0.0000000000000000  0.0000000000000000
  0.0000000000000000  0.0000000000000000  0.0000000000000000
  0.0000000000000000  0.0000000000000000  0.0000000000000000
  0.0000000000000000  0.0000000000000000  0.0000000000000000
  0.0000000000000000  0.0000000000000000  0.0000000000000000
  0.0000000000000000  0.0000000000000000  0.0000000000000000
  0.0000000000000000  0.0000000000000000  0.0000000000000000
  0.0000000000000000  0.0000000000000000  0.0000000000000000
  0.0000000000000000  0.0000000000000000  0.0000000000000000
  0.0000000000000000  0.0000000000000000  0.0000000000000000
  0.0000000000000000  0.0000000000000000  0.0000000000000000
  0.0000000000000000  0.0000000000000000  0.0000000000000000
  0.0000000000000000  0.0000000000000000  0.0000000000000000
  0.0000000000000000  0.0000000000000000  0.0000000000000000
  0.0000000000000000  0.0000000000000000  0.0000000000000000
  0.0000000000000000  0.0000000000000000  0.0000000000000000
  0.0000000000000000  0.0000000000000000  0.0000000000000000
  0.0000000000000000  0.0000000000000000  0.0000000000000000
  0.0000000000000000  0.0000000000000000  0.0000000000000000
  0.0000000000000000  0.0000000000000000  0.0000000000000000
  0.0000000000000000  0.0000000000000000  0.0000000000000000
  0.0000000000000000  0.0000000000000000  0.0000000000000000
  0.0000000000000000  0.0000000000000000  0.0000000000000000
  0.0000000000000000  0.0000000000000000  0.0000000000000000
  0.0000000000000000  0.0000000000000000  0.0000000000000000
  0.0000000000000000  0.0000000000000000  0.0000000000000000
  0.0000000000000000  0.0000000000000000  0.0000000000000000
  0.0000000000000000  0.0000000000000000  0.0000000000000000
  0.0000000000000000  0.0000000000000000  0.0000000000000000
  0.0000000000000000  0.0000000000000000  0.0000000000000000
  0.0000000000000000  0.0000000000000000  0.0000000000000000
  0.0000000000000000  0.0000000000000000  0.0000000000000000
  0.0000000000000000  0.0000000000000000  0.0000000000000000
  0.0000000000000000  0.0000000000000000  0.0000000000000000
  0.0000000000000000  0.0000000000000000  0.0000000000000000
  0.0000000000000000  0.0000000000000000  0.0000000000000000
  0.0000000000000000  0.0000000000000000  0.0000000000000000
  0.0000000000000000  0.0000000000000000  0.0000000000000000
  0.0000000000000000  0.0000000000000000  0.0000000000000000
  0.0000000000000000  0.0000000000000000  0.0000000000000000
  0.0000000000000000  0.0000000000000000  0.0000000000000000
  0.0000000000000000  0.0000000000000000  0.0000000000000000
  0.0000000000000000  0.0000000000000000  0.0000000000000000
  0.0000000000000000  0.0000000000000000  0.0000000000000000
  0.0000000000000000  0.0000000000000000  0.0000000000000000
  0.0000000000000000  0.0000000000000000  0.0000000000000000
  0.0000000000000000  0.0000000000000000  0.0000000000000000
  0.0000000000000000  0.0000000000000000  0.0000000000000000
  0.0000000000000000  0.0000000000000000  0.0000000000000000
  0.0000000000000000  0.0000000000000000  0.0000000000000000
  0.0000000000000000  0.0000000000000000  0.0000000000000000
  0.0000000000000000  0.0000000000000000  0.0000000000000000
  0.0000000000000000  0.0000000000000000  0.0000000000000000
  0.0000000000000000  0.0000000000000000  0.0000000000000000
  0.0000000000000000  0.0000000000000000  0.0000000000000000
  0.0000000000000000  0.0000000000000000  0.0000000000000000
  0.0000000000000000  0.0000000000000000  0.0000000000000000
  0.0000000000000000  0.0000000000000000  0.0000000000000000
  0.0000000000000000  0.0000000000000000  0.0000000000000000
  0.0000000000000000  0.0000000000000000  0.0000000000000000
  0.0000000000000000  0.0000000000000000  0.0000000000000000
  0.0000000000000000  0.0000000000000000  0.0000000000000000
  0.0000000000000000  0.0000000000000000  0.0000000000000000
  0.0000000000000000  0.0000000000000000  0.0000000000000000
  0.0000000000000000  0.0000000000000000  0.0000000000000000
  0.0000000000000000  0.0000000000000000  0.0000000000000000
  0.0000000000000000  0.0000000000000000  0.0000000000000000
  0.0000000000000000  0.0000000000000000  0.0000000000000000
  0.0000000000000000  0.0000000000000000  0.0000000000000000
  0.0000000000000000  0.0000000000000000  0.0000000000000000
  0.0000000000000000  0.0000000000000000  0.0000000000000000
  0.0000000000000000  0.0000000000000000  0.0000000000000000
  0.0000000000000000  0.0000000000000000  0.0000000000000000
  0.0000000000000000  0.0000000000000000  0.0000000000000000
  0.0000000000000000  0.0000000000000000  0.0000000000000000
  0.0000000000000000  0.0000000000000000  0.0000000000000000
  0.0000000000000000  0.0000000000000000  0.0000000000000000
  0.0000000000000000  0.0000000000000000  0.0000000000000000
  0.0000000000000000  0.0000000000000000  0.0000000000000000
  0.0000000000000000  0.0000000000000000  0.0000000000000000
  0.0000000000000000  0.0000000000000000  0.0000000000000000
  0.0000000000000000  0.0000000000000000  0.0000000000000000
  0.0000000000000000  0.0000000000000000  0.0000000000000000
  0.0000000000000000  0.0000000000000000  0.0000000000000000
  0.0000000000000000  0.0000000000000000  0.0000000000000000
  0.0000000000000000  0.0000000000000000  0.0000000000000000
  0.0000000000000000  0.0000000000000000  0.0000000000000000
  0.0000000000000000  0.0000000000000000  0.0000000000000000
  0.0000000000000000  0.0000000000000000  0.0000000000000000
  0.0000000000000000  0.0000000000000000  0.0000000000000000
  0.0000000000000000  0.0000000000000000  0.0000000000000000
  0.0000000000000000  0.0000000000000000  0.0000000000000000
  0.0000000000000000  0.0000000000000000  0.0000000000000000
  0.0000000000000000  0.0000000000000000  0.0000000000000000
