C  H  O  Pd
 1.0000000000000000
    12.2143708368485502    0.0000000000000000    0.0000000000000007
     0.0000000000000017   10.8116922467861709    0.0000000000000007
     0.0000000000000000    0.0000000000000000   30.6875744822424821
 C   H   O   Pd 
   2   3  66  64
Selective dynamics
Direct
  0.1155778684592026  0.6184368675513291  0.4800184910428931   T   T   T
  0.3852641673082068  0.4812613623808089  0.4736813102759149   T   T   T
  0.0388563445356464  0.6693339395563180  0.4727591982818564   T   T   T
  0.1175791322379851  0.5956390956852446  0.5153093248390309   T   T   T
  0.1862736018582059  0.6787787232891233  0.4721780826041885   T   T   T
  0.0000001489023768  0.6253641828117400  0.1990385236877962   F   F   F
  0.9981308561934864  0.3779006129290467  0.3959853721211561   T   T   T
  0.0000007785774361  0.8746366631057728  0.1990387117510663   F   F   F
 -0.0013547717971968  0.1201111006787272  0.3961569618394987   T   T   T
  0.2494253664529086  0.3747034682557369  0.2994384469800008   T   T   T
  0.0000000000000000  0.6250000000000000  0.0986326357059468   F   F   F
  0.7494006818864599  0.6201273336794747  0.3965810387113264   T   T   T
 -0.0009405978733517  0.8748172065258011  0.2983921564278555   T   T   T
  0.2490340925474801  0.1250108253838941  0.2986998659824020   T   T   T
  0.7493537329265032  0.3742111017049021  0.2987739225862481   T   T   T
  0.4989750191856511  0.8741439599194948  0.2987759878454493   T   T   T
  0.4994716571412336  0.6248446170704686  0.2987803515751750   T   T   T
  0.9986591322791879  0.8787891522606242  0.3962794344645063   T   T   T
 -0.0008815284362811  0.1247819669795419  0.2984682408395423   T   T   T
  0.9993469989457890  0.3746829411098840  0.2991576679411623   T   T   T
  0.4987480397213668  0.8786123898322842  0.3965183788381364   T   T   T
  0.9970456288664247  0.6216446922001168  0.3955767688748655   T   T   T
  0.0000003667133454  0.1253639748692094  0.1990386316366852   F   F   F
  0.0000002712633380  0.3746360819220366  0.1990386009744299   F   F   F
  0.2500000000000000  0.3750000000000000  0.0986326357059468   F   F   F
 -0.0000000000000000  0.8750000000000001  0.0986326357059468   F   F   F
  0.2499998638177366  0.3746354513558036  0.1990391137478614   F   F   F
  0.2500000000000000  0.1250000000000000  0.0986326357059468   F   F   F
  0.2500003118916107  0.1253643742758414  0.1990388468832426   F   F   F
  0.0000000000000000  0.3750000000000000  0.0986326357059468   F   F   F
  0.0000000000000000  0.1250000000000000  0.0986326357059468   F   F   F
  0.3893534515225958  0.3911238126021918  0.4934917864485260   T   T   T
  0.1212848490709279  0.5013558505835388  0.4595738813729210   T   T   T
 -0.0007794895696770  0.6249180732444074  0.2988662843190026   T   T   T
  0.5008222306640849  0.6210891523251905  0.3965776131042457   T   T   T
  0.2503701767735181  0.6225526733415170  0.3963737114485780   T   T   T
  0.7500000000000000  0.1250000000000000  0.0986326357059468   F   F   F
  0.2500000725690806  0.8746359244060554  0.1990388968624472   F   F   F
  0.2500000575081164  0.6253646356490544  0.1990388586176256   F   F   F
  0.2490684309940336  0.8744415154928982  0.2986370108475410   T   T   T
  0.2495966039394454  0.6247713489353873  0.2991427899165426   T   T   T
  0.2486407434323501  0.8789627145878167  0.3964157909881705   T   T   T
  0.7488557557912874  0.8785470588339056  0.3967036629394189   T   T   T
  0.2500000000000000  0.6250000000000000  0.0986326357059468   F   F   F
  0.5000000000000000  0.3750000000000000  0.0986326357059468   F   F   F
  0.4988807858129725  0.1197588086755626  0.3963655840258889   T   T   T
  0.5000700110443920  0.3772956297689645  0.3963058351897156   T   T   T
  0.4990120822605921  0.1247565496276180  0.2985789682215451   T   T   T
  0.4993976531004238  0.3743220914254219  0.2988061016869655   T   T   T
  0.4999998368048840  0.1253637532206347  0.1990388322615649   F   F   F
  0.7500000000000000  0.3750000000000000  0.0986326357059468   F   F   F
  0.5000000000000000  0.1250000000000000  0.0986326357059468   F   F   F
  0.2500000000000000  0.8750000000000001  0.0986326357059468   F   F   F
  0.4999999938080711  0.3746360868658646  0.1990385922315757   F   F   F
  0.5000000000000000  0.8750000000000001  0.0986326357059468   F   F   F
  0.2487115929978823  0.1200613765004223  0.3963970737910653   T   T   T
  0.7500000114023815  0.1253633646095497  0.1990386859845709   F   F   F
  0.7500004982174803  0.3746360905691121  0.1990382815073973   F   F   F
  0.2499719435135485  0.3775249963259182  0.3964729296984785   T   T   T
  0.7492761139239572  0.3780039335873062  0.3965617410930366   T   T   T
  0.7486096470796760  0.1198487292746969  0.3964894893660933   T   T   T
  0.7500000000000000  0.8750000000000001  0.0986326357059468   F   F   F
  0.7490027271595826  0.1248983889305801  0.2986297612211356   T   T   T
  0.7500002014178647  0.8746343896298040  0.1990386967425212   F   F   F
  0.7500002133337712  0.6253633161861426  0.1990388060063935   F   F   F
  0.7490600647106461  0.8742003562065317  0.2988019838758010   T   T   T
  0.7491982649457473  0.6251003491265112  0.2987755682881227   T   T   T
  0.5000001784867202  0.6253637522044813  0.1990389446145577   F   F   F
  0.4999995794704318  0.8746354974934157  0.1990386872989469   F   F   F
  0.7500000000000000  0.6250000000000000  0.0986326357059468   F   F   F
  0.5000000000000000  0.6250000000000000  0.0986326357059468   F   F   F
  0.0000000644614895  0.7499997055339565  0.1487767856559003   F   F   F
  0.4995362338187572  0.7497476124783433  0.2492852004703166   T   T   T
  0.1240882059532849  0.5006465986254636  0.3945164727038649   T   T   T
  0.6250000000000000  0.0000000000000000  0.0986326357059468   F   F   F
  0.3737592960139647 -0.0006094172795294  0.3915362496756071   T   T   T
  0.2500002436688700  0.7499998371993483  0.1487767841964014   F   F   F
  0.2490077133875074  0.2491589471501764  0.3506882129206810   T   T   T
  0.2493650830098287  0.2502287067637082  0.2493631240728273   T   T   T
  0.2500000000000000  0.7500000000000000  0.0488797184302712   F   F   F
  0.3750000000000000  0.5000000000000000  0.0986326357059468   F   F   F
  0.5000000000000000  0.2500000000000000  0.0488797184302712   F   F   F
  0.5000000890861059  0.7499991063848873  0.1487764921061197   F   F   F
  0.6240148593452021 -0.0005556163294391  0.2976890198138805   T   T   T
  0.6250000000000000  0.5000000000000000  0.0986326357059468   F   F   F
  0.5000000000000000  0.7500000000000000  0.0488797184302712   F   F   F
 -0.0001373773826955  0.7497052473047264  0.2491592542148171   T   T   T
  0.6237884606683780  0.9990474698641637  0.3917058183262761   T   T   T
  0.4994628818887651  0.2486549172606536  0.3505655028467344   T   T   T
  0.1243262454111659  0.4997458627725181  0.2995563176831507   T   T   T
  0.4994547222280788  0.2498354218165597  0.2492168337309691   T   T   T
  0.9982873951599917  0.7506223912177199  0.3501689318887654   T   T   T
  0.6250011512513076  0.9999984342009582  0.1993176556340738   F   F   F
  0.5000000412290440  0.2500002002978380  0.1487764123606149   F   F   F
  0.1250000000000000  0.5000000000000000  0.0986326357059468   F   F   F
  0.0000000000000000  0.2500000000000000  0.0488797184302712   F   F   F
  0.3750013085010481  0.9999996425241101  0.1993178715196733   F   F   F
  0.1250005006673170  0.4999996619028680  0.1993179793341455   F   F   F
  0.3750004864510694  0.5000000253507203  0.1993181014519463   F   F   F
 -0.0000517129711895  0.2501480469467381  0.2492554295235199   T   T   T
  0.2500001827845806  0.2500004790494265  0.1487770501254799   F   F   F
  0.7496207930052841  0.2498487150484989  0.2492532888084342   T   T   T
  0.7495487200584355  0.7498205755194514  0.2493065513049882   T   T   T
  0.1249992154568337  0.0000000621413549  0.1993179005561505   F   F   F
  0.7499999695802716  0.7499987873488344  0.1487766346932499   F   F   F
  0.8749990435797278  0.9999988729247118  0.1993176942245059   F   F   F
  0.7500000714258059  0.2500001333654533  0.1487767298788664   F   F   F
  0.8739187934063202 -0.0003092476904695  0.2976059957648998   T   T   T
  0.1236592472955657 -0.0003338207005238  0.3914733246476154   T   T   T
  0.8750000000000000  0.0000000000000000  0.0986326357059468   F   F   F
  0.7500000000000000  0.2500000000000000  0.0488797184302712   F   F   F
  0.1250000000000000  0.0000000000000000  0.0986326357059468   F   F   F
  0.0000000000000000  0.7500000000000000  0.0488797184302712   F   F   F
  0.8737393023757094  0.4989013505134212  0.3914577548360145   T   T   T
  0.6245828806492900  0.4991214212756102  0.3917005736416244   T   T   T
  0.8740843909718143  0.4997321230251365  0.2979245476182192   T   T   T
  0.2500000000000000  0.2500000000000000  0.0488797184302712   F   F   F
  0.0000001104490266  0.2500003692293262  0.1487770372582357   F   F   F
  0.7491523203797613  0.2491530841567617  0.3507780333716456   T   T   T
  0.2494177138764874  0.7495755860835721  0.2492779037143711   T   T   T
  0.3746005439809353  0.4996044134332353  0.2983521696934135   T   T   T
  0.3750000000000000  0.0000000000000000  0.0986326357059468   F   F   F
  0.2493406404379488  0.7502399838974024  0.3505515859076617   T   T   T
  0.3751131246354990  0.4996652630527109  0.3926198685451794   T   T   T
  0.6244737922024276  0.4995282613651144  0.2977904780702398   T   T   T
  0.1241253599653874  0.9997474464257811  0.2976491390327276   T   T   T
  0.6249997369785575  0.5000005243672183  0.1993177510521300   F   F   F
  0.9989899058251119  0.2491831837304865  0.3504107243086445   T   T   T
  0.8750000000000000  0.5000000000000000  0.0986326357059468   F   F   F
  0.7500000000000000  0.7500000000000000  0.0488797184302712   F   F   F
  0.8749998623887097  0.5000001886345932  0.1993177285951360   F   F   F
  0.8736508898212585  0.9994288629242218  0.3915172553022463   T   T   T
  0.4997141297591408  0.7495120984427273  0.3507902282579158   T   T   T
  0.3740420014831998 -0.0004504179294301  0.2977466425871033   T   T   T
  0.7491164338284142  0.7495137315742130  0.3508904179015196   T   T   T
Cartesian
  0.0000000000000000  0.0000000000000000  0.0000000000000000
  0.0000000000000000  0.0000000000000000  0.0000000000000000
  0.0000000000000000  0.0000000000000000  0.0000000000000000
  0.0000000000000000  0.0000000000000000  0.0000000000000000
  0.0000000000000000  0.0000000000000000  0.0000000000000000
  0.0000000000000000  0.0000000000000000  0.0000000000000000
  0.0000000000000000  0.0000000000000000  0.0000000000000000
  0.0000000000000000  0.0000000000000000  0.0000000000000000
  0.0000000000000000  0.0000000000000000  0.0000000000000000
  0.0000000000000000  0.0000000000000000  0.0000000000000000
  0.0000000000000000  0.0000000000000000  0.0000000000000000
  0.0000000000000000  0.0000000000000000  0.0000000000000000
  0.0000000000000000  0.0000000000000000  0.0000000000000000
  0.0000000000000000  0.0000000000000000  0.0000000000000000
  0.0000000000000000  0.0000000000000000  0.0000000000000000
  0.0000000000000000  0.0000000000000000  0.0000000000000000
  0.0000000000000000  0.0000000000000000  0.0000000000000000
  0.0000000000000000  0.0000000000000000  0.0000000000000000
  0.0000000000000000  0.0000000000000000  0.0000000000000000
  0.0000000000000000  0.0000000000000000  0.0000000000000000
  0.0000000000000000  0.0000000000000000  0.0000000000000000
  0.0000000000000000  0.0000000000000000  0.0000000000000000
  0.0000000000000000  0.0000000000000000  0.0000000000000000
  0.0000000000000000  0.0000000000000000  0.0000000000000000
  0.0000000000000000  0.0000000000000000  0.0000000000000000
  0.0000000000000000  0.0000000000000000  0.0000000000000000
  0.0000000000000000  0.0000000000000000  0.0000000000000000
  0.0000000000000000  0.0000000000000000  0.0000000000000000
  0.0000000000000000  0.0000000000000000  0.0000000000000000
  0.0000000000000000  0.0000000000000000  0.0000000000000000
  0.0000000000000000  0.0000000000000000  0.0000000000000000
  0.0000000000000000  0.0000000000000000  0.0000000000000000
  0.0000000000000000  0.0000000000000000  0.0000000000000000
  0.0000000000000000  0.0000000000000000  0.0000000000000000
  0.0000000000000000  0.0000000000000000  0.0000000000000000
  0.0000000000000000  0.0000000000000000  0.0000000000000000
  0.0000000000000000  0.0000000000000000  0.0000000000000000
  0.0000000000000000  0.0000000000000000  0.0000000000000000
  0.0000000000000000  0.0000000000000000  0.0000000000000000
  0.0000000000000000  0.0000000000000000  0.0000000000000000
  0.0000000000000000  0.0000000000000000  0.0000000000000000
  0.0000000000000000  0.0000000000000000  0.0000000000000000
  0.0000000000000000  0.0000000000000000  0.0000000000000000
  0.0000000000000000  0.0000000000000000  0.0000000000000000
  0.0000000000000000  0.0000000000000000  0.0000000000000000
  0.0000000000000000  0.0000000000000000  0.0000000000000000
  0.0000000000000000  0.0000000000000000  0.0000000000000000
  0.0000000000000000  0.0000000000000000  0.0000000000000000
  0.0000000000000000  0.0000000000000000  0.0000000000000000
  0.0000000000000000  0.0000000000000000  0.0000000000000000
  0.0000000000000000  0.0000000000000000  0.0000000000000000
  0.0000000000000000  0.0000000000000000  0.0000000000000000
  0.0000000000000000  0.0000000000000000  0.0000000000000000
  0.0000000000000000  0.0000000000000000  0.0000000000000000
  0.0000000000000000  0.0000000000000000  0.0000000000000000
  0.0000000000000000  0.0000000000000000  0.0000000000000000
  0.0000000000000000  0.0000000000000000  0.0000000000000000
  0.0000000000000000  0.0000000000000000  0.0000000000000000
  0.0000000000000000  0.0000000000000000  0.0000000000000000
  0.0000000000000000  0.0000000000000000  0.0000000000000000
  0.0000000000000000  0.0000000000000000  0.0000000000000000
  0.0000000000000000  0.0000000000000000  0.0000000000000000
  0.0000000000000000  0.0000000000000000  0.0000000000000000
  0.0000000000000000  0.0000000000000000  0.0000000000000000
  0.0000000000000000  0.0000000000000000  0.0000000000000000
  0.0000000000000000  0.0000000000000000  0.0000000000000000
  0.0000000000000000  0.0000000000000000  0.0000000000000000
  0.0000000000000000  0.0000000000000000  0.0000000000000000
  0.0000000000000000  0.0000000000000000  0.0000000000000000
  0.0000000000000000  0.0000000000000000  0.0000000000000000
  0.0000000000000000  0.0000000000000000  0.0000000000000000
  0.0000000000000000  0.0000000000000000  0.0000000000000000
  0.0000000000000000  0.0000000000000000  0.0000000000000000
  0.0000000000000000  0.0000000000000000  0.0000000000000000
  0.0000000000000000  0.0000000000000000  0.0000000000000000
  0.0000000000000000  0.0000000000000000  0.0000000000000000
  0.0000000000000000  0.0000000000000000  0.0000000000000000
  0.0000000000000000  0.0000000000000000  0.0000000000000000
  0.0000000000000000  0.0000000000000000  0.0000000000000000
  0.0000000000000000  0.0000000000000000  0.0000000000000000
  0.0000000000000000  0.0000000000000000  0.0000000000000000
  0.0000000000000000  0.0000000000000000  0.0000000000000000
  0.0000000000000000  0.0000000000000000  0.0000000000000000
  0.0000000000000000  0.0000000000000000  0.0000000000000000
  0.0000000000000000  0.0000000000000000  0.0000000000000000
  0.0000000000000000  0.0000000000000000  0.0000000000000000
  0.0000000000000000  0.0000000000000000  0.0000000000000000
  0.0000000000000000  0.0000000000000000  0.0000000000000000
  0.0000000000000000  0.0000000000000000  0.0000000000000000
  0.0000000000000000  0.0000000000000000  0.0000000000000000
  0.0000000000000000  0.0000000000000000  0.0000000000000000
  0.0000000000000000  0.0000000000000000  0.0000000000000000
  0.0000000000000000  0.0000000000000000  0.0000000000000000
  0.0000000000000000  0.0000000000000000  0.0000000000000000
  0.0000000000000000  0.0000000000000000  0.0000000000000000
  0.0000000000000000  0.0000000000000000  0.0000000000000000
  0.0000000000000000  0.0000000000000000  0.0000000000000000
  0.0000000000000000  0.0000000000000000  0.0000000000000000
  0.0000000000000000  0.0000000000000000  0.0000000000000000
  0.0000000000000000  0.0000000000000000  0.0000000000000000
  0.0000000000000000  0.0000000000000000  0.0000000000000000
  0.0000000000000000  0.0000000000000000  0.0000000000000000
  0.0000000000000000  0.0000000000000000  0.0000000000000000
  0.0000000000000000  0.0000000000000000  0.0000000000000000
  0.0000000000000000  0.0000000000000000  0.0000000000000000
  0.0000000000000000  0.0000000000000000  0.0000000000000000
  0.0000000000000000  0.0000000000000000  0.0000000000000000
  0.0000000000000000  0.0000000000000000  0.0000000000000000
  0.0000000000000000  0.0000000000000000  0.0000000000000000
  0.0000000000000000  0.0000000000000000  0.0000000000000000
  0.0000000000000000  0.0000000000000000  0.0000000000000000
  0.0000000000000000  0.0000000000000000  0.0000000000000000
  0.0000000000000000  0.0000000000000000  0.0000000000000000
  0.0000000000000000  0.0000000000000000  0.0000000000000000
  0.0000000000000000  0.0000000000000000  0.0000000000000000
  0.0000000000000000  0.0000000000000000  0.0000000000000000
  0.0000000000000000  0.0000000000000000  0.0000000000000000
  0.0000000000000000  0.0000000000000000  0.0000000000000000
  0.0000000000000000  0.0000000000000000  0.0000000000000000
  0.0000000000000000  0.0000000000000000  0.0000000000000000
  0.0000000000000000  0.0000000000000000  0.0000000000000000
  0.0000000000000000  0.0000000000000000  0.0000000000000000
  0.0000000000000000  0.0000000000000000  0.0000000000000000
  0.0000000000000000  0.0000000000000000  0.0000000000000000
  0.0000000000000000  0.0000000000000000  0.0000000000000000
  0.0000000000000000  0.0000000000000000  0.0000000000000000
  0.0000000000000000  0.0000000000000000  0.0000000000000000
  0.0000000000000000  0.0000000000000000  0.0000000000000000
  0.0000000000000000  0.0000000000000000  0.0000000000000000
  0.0000000000000000  0.0000000000000000  0.0000000000000000
  0.0000000000000000  0.0000000000000000  0.0000000000000000
  0.0000000000000000  0.0000000000000000  0.0000000000000000
  0.0000000000000000  0.0000000000000000  0.0000000000000000
  0.0000000000000000  0.0000000000000000  0.0000000000000000
  0.0000000000000000  0.0000000000000000  0.0000000000000000
