C  H  O  Pd
 1.0000000000000000
    12.3034736924171124    0.0000000000000000    0.0000000000000000
     0.0000000000000000   12.3034736924171142    0.0000000000000000
     0.0000000000000000    0.0000000000000000   29.1654207465942434
 C   H   O   Pd 
   2   3  18  96
Selective dynamics
Direct
  0.6354645363664846  0.2944967051106276  0.4369522673515979   T   T   T
  0.9342270993299581  0.2195935886452127  0.4393502866617186   T   T   T
  0.6706085525148573  0.3209160834904632  0.4701755835249440   T   T   T
  0.5513282807439579  0.3275458554123707  0.4350795263893829   T   T   T
  0.6306734277337853  0.2044850138261450  0.4370500946203841   T   T   T
  0.7048533024200451  0.3366086100682559  0.4026522730821885   T   T   T
  0.9831354478774623  0.3013177531151331  0.4347037602399761   T   T   T
  0.6890252903728249  0.1347309887689958  0.3591253676965254   T   T   T
  0.1816460052517693  0.6358703098544897  0.3603518876678597   T   T   T
  0.4390169728480356  0.1330102718106763  0.3613084779883384   T   T   T
  0.4329410562910014  0.4396819221934400  0.3221161335333648   T   T   T
  0.6904363808155712  0.9407291132815547  0.3212849290166501   T   T   T
  0.1842710139286255  0.1378133500125263  0.3609382236524293   T   T   T
  0.1865985811931478  0.4420436175043274  0.3208850216796830   T   T   T
  0.9364564611940276  0.6346165591577004  0.3610684583406318   T   T   T
  0.6859205069823728  0.4441849492611715  0.3197708395027188   T   T   T
  0.9328145177934810  0.4284575782047348  0.3249578742780790   T   T   T
  0.8870600956215472  0.1369845623003392  0.4446237423977295   T   T   T
  0.9361430438677119  0.9467344221855157  0.3205850485392586   T   T   T
  0.6863457541235221  0.6366474755066122  0.3602123908452160   T   T   T
  0.4339999147158421  0.9386444583896328  0.3215650869561219   T   T   T
  0.1873823662444800  0.9415354030684980  0.3222316780526919   T   T   T
  0.4359183212918911  0.6345268840192377  0.3624429125749192   T   T   T
  0.9004597642480214  0.9027678266135363  0.2537639844391392   T   T   T
  0.2509648401161000  0.8498517834907163  0.1863411448976262   T   T   T
  0.0556797209627273  0.0531511715487555  0.3370224938897359   T   T   T
  0.1507236091547503  0.1489864169829936  0.1853656493630883   F   F   F
  0.9500000000000028  0.2500000000000000  0.0514307684100572   F   F   F
  0.8500000000000014  0.0499999999999972  0.0514307684100572   F   F   F
  0.2999999999999972  0.2000000000000028  0.1181313319610595   F   F   F
  0.1499999999999986  0.1499999999999986  0.0514307684100572   F   F   F
  0.5600460400199585  0.5424318699591686  0.3399282898976827   T   T   T
  0.8485330413376032  0.0512636254534289  0.1852339871257567   F   F   F
  0.9952381987240861  0.1059240113185806  0.2515944677137011   T   T   T
  0.1000000000000014  0.2999999999999972  0.1181313319610595   F   F   F
  0.1907047435369341  0.2822258219052390  0.3345385480694563   T   T   T
  0.9486127127564162  0.2506768571014975  0.1843632683220324   F   F   F
  0.0975047402115708  0.2980085595203268  0.2513467776854125   T   T   T
  0.0499999999999972  0.4500000000000027  0.0514307684100572   F   F   F
  0.2000000000000028  0.5000000000000000  0.1181313319610595   F   F   F
  0.0491193131827514  0.4512444611448465  0.1844626448581111   F   F   F
  0.0000000000000000  0.1000000000000014  0.1181313319610595   F   F   F
  0.3101234456676559  0.5443073366616356  0.3401283110990384   T   T   T
  0.1507252829162628  0.6489864416498848  0.1853659281879895   F   F   F
  0.3485341556527256  0.0512641898857512  0.1852337169709379   F   F   F
  0.9375463626782762  0.7776887855994226  0.3310900425193727   T   T   T
  0.4003630661729803  0.9037009420335879  0.2537485714518669   T   T   T
  0.1865989752120709  0.7816138851861560  0.3344691838038509   T   T   T
  0.3116292086791497  0.0437379595272815  0.3400689736095955   T   T   T
  0.8125117610077974  0.5409106947840630  0.3399791689076141   T   T   T
  0.6872809997040895  0.2845378803909805  0.3374556752559507   T   T   T
  0.9489149220902228  0.2479199279698268  0.3231833868222462   T   T   T
  0.4361429482182884  0.7754122737888426  0.3319272708976777   T   T   T
  0.0575920070145940  0.5378938669805938  0.3398044891252584   T   T   T
  0.5000000000000000  0.1000000000000014  0.1181313319610595   F   F   F
  0.6911277864875425  0.7820038716005471  0.3340570753740736   T   T   T
  0.8211476283883965  0.0587525965022601  0.3350076304379728   T   T   T
  0.8999999999999986  0.8999999999999986  0.1181313319610595   F   F   F
  0.9019541718590753  0.4069213907079835  0.2560024620609664   T   T   T
  0.2512176076394995  0.3494190558259427  0.1863461028644985   T   T   T
  0.2500000000000000  0.3500000000000014  0.0514307684100572   F   F   F
  0.2500000000000000  0.8500000000000014  0.0514307684100572   F   F   F
  0.4372546245596141  0.2757065228394566  0.3320695053163709   T   T   T
  0.4500000000000028  0.2500000000000000  0.0514307684100572   F   F   F
  0.4970134743190026  0.1061734745844349  0.2529472078522407   T   T   T
  0.5628525796364845  0.0400663330030665  0.3387926836881384   T   T   T
  0.1945966073627095  0.5000573323601690  0.2540914172631642   T   T   T
  0.8999999999999986  0.3999999999999986  0.1181313319610595   F   F   F
  0.3500000000000014  0.5499999999999972  0.0514307684100572   F   F   F
  0.1499999999999986  0.6499999999999986  0.0514307684100572   F   F   F
  0.5948823996698386  0.7966433081465133  0.2524200452212902   T   T   T
  0.7500000000000000  0.8500000000000014  0.0514307684100572   F   F   F
  0.7980136499237462  0.6998782934357642  0.2571559655530070   T   T   T
  0.2999999999999972  0.7000000000000028  0.1181313319610595   F   F   F
  0.6000000000000014  0.2999999999999972  0.1181313319610595   F   F   F
  0.7999999999999972  0.7000000000000028  0.1181313319610595   F   F   F
  0.6946614394757576 -0.0020809928254267  0.2545668809103898   T   T   T
  0.5491182374295687  0.9512475927721618  0.1844623188205349   F   F   F
  0.7000000000000027  0.0000000000000000  0.1181313319610595   F   F   F
  0.9500000000000028  0.7500000000000000  0.0514307684100572   F   F   F
  0.5499999999999972  0.9500000000000028  0.0514307684100572   F   F   F
  0.4486144413896602  0.7506743341769924  0.1843622545089304   F   F   F
  0.6499999999999986  0.6499999999999986  0.0514307684100572   F   F   F
  0.6000000000000014  0.7999999999999972  0.1181313319610595   F   F   F
  0.5499999999999972  0.4500000000000027  0.0514307684100572   F   F   F
  0.4486122021981009  0.2506766379109669  0.1843629363752118   F   F   F
  0.5948757131431620  0.2978919239429749  0.2530725651205190   T   T   T
  0.5000000000000000  0.6000000000000014  0.1181313319610595   F   F   F
  0.3485320028910852  0.5512631916718084  0.1852336449463447   F   F   F
  0.4961631078394530  0.6059801114442533  0.2533593821520267   T   T   T
  0.4500000000000028  0.7500000000000000  0.0514307684100572   F   F   F
  0.6507236918031661  0.6489854869807887  0.1853661340816861   F   F   F
  0.2986434976581588  0.1996854814797344  0.2575226093011477   T   T   T
  0.0491177240126065  0.9512405474851490  0.1844615703293516   F   F   F
  0.5491175178526683  0.4512445656232251  0.1844618875770611   F   F   F
  0.3500000000000014  0.0499999999999972  0.0514307684100572   F   F   F
  0.2975518370583890  0.7005885050577726  0.2574473301432016   T   T   T
  0.7504617123224301  0.8494326371783461  0.1863456143063064   T   T   T
  0.1950074091261066 -0.0015305409711293  0.2549899963862776   T   T   T
  0.2000000000000028  0.0000000000000000  0.1181313319610595   F   F   F
  0.0958427940446632  0.7979017884320783  0.2519587963974169   T   T   T
  0.9486106854241280  0.7506756416198153  0.1843625136127240   F   F   F
  0.1000000000000014  0.7999999999999972  0.1181313319610595   F   F   F
  0.3999999999999986  0.8999999999999986  0.1181313319610595   F   F   F
  0.9966124235814520  0.6068769697023532  0.2538087297493959   T   T   T
  0.7000000000000027  0.5000000000000000  0.1181313319610595   F   F   F
  0.8485338373677122  0.5512634687110046  0.1852339858465592   F   F   F
  0.8500000000000014  0.5499999999999972  0.0514307684100572   F   F   F
  0.3995858222845186  0.4040137005985787  0.2540793092556536   T   T   T
  0.7514879938155608  0.3496554667125163  0.1866248357435096   T   T   T
  0.3999999999999986  0.3999999999999986  0.1181313319610595   F   F   F
  0.7500000000000000  0.3500000000000014  0.0514307684100572   F   F   F
  0.7939025409372973  0.2024394300230435  0.2566379584451945   T   T   T
  0.6507246110173561  0.1489888581776777  0.1853660239556655   F   F   F
  0.7999999999999972  0.2000000000000028  0.1181313319610595   F   F   F
  0.6499999999999986  0.1499999999999986  0.0514307684100572   F   F   F
  0.6951549190469899  0.4993723071673251  0.2534442773581014   T   T   T
  0.0000000000000000  0.6000000000000014  0.1181313319610595   F   F   F
  0.0499999999999972  0.9500000000000028  0.0514307684100572   F   F   F
Cartesian
  0.0000000000000000  0.0000000000000000  0.0000000000000000
  0.0000000000000000  0.0000000000000000  0.0000000000000000
  0.0000000000000000  0.0000000000000000  0.0000000000000000
  0.0000000000000000  0.0000000000000000  0.0000000000000000
  0.0000000000000000  0.0000000000000000  0.0000000000000000
  0.0000000000000000  0.0000000000000000  0.0000000000000000
  0.0000000000000000  0.0000000000000000  0.0000000000000000
  0.0000000000000000  0.0000000000000000  0.0000000000000000
  0.0000000000000000  0.0000000000000000  0.0000000000000000
  0.0000000000000000  0.0000000000000000  0.0000000000000000
  0.0000000000000000  0.0000000000000000  0.0000000000000000
  0.0000000000000000  0.0000000000000000  0.0000000000000000
  0.0000000000000000  0.0000000000000000  0.0000000000000000
  0.0000000000000000  0.0000000000000000  0.0000000000000000
  0.0000000000000000  0.0000000000000000  0.0000000000000000
  0.0000000000000000  0.0000000000000000  0.0000000000000000
  0.0000000000000000  0.0000000000000000  0.0000000000000000
  0.0000000000000000  0.0000000000000000  0.0000000000000000
  0.0000000000000000  0.0000000000000000  0.0000000000000000
  0.0000000000000000  0.0000000000000000  0.0000000000000000
  0.0000000000000000  0.0000000000000000  0.0000000000000000
  0.0000000000000000  0.0000000000000000  0.0000000000000000
  0.0000000000000000  0.0000000000000000  0.0000000000000000
  0.0000000000000000  0.0000000000000000  0.0000000000000000
  0.0000000000000000  0.0000000000000000  0.0000000000000000
  0.0000000000000000  0.0000000000000000  0.0000000000000000
  0.0000000000000000  0.0000000000000000  0.0000000000000000
  0.0000000000000000  0.0000000000000000  0.0000000000000000
  0.0000000000000000  0.0000000000000000  0.0000000000000000
  0.0000000000000000  0.0000000000000000  0.0000000000000000
  0.0000000000000000  0.0000000000000000  0.0000000000000000
  0.0000000000000000  0.0000000000000000  0.0000000000000000
  0.0000000000000000  0.0000000000000000  0.0000000000000000
  0.0000000000000000  0.0000000000000000  0.0000000000000000
  0.0000000000000000  0.0000000000000000  0.0000000000000000
  0.0000000000000000  0.0000000000000000  0.0000000000000000
  0.0000000000000000  0.0000000000000000  0.0000000000000000
  0.0000000000000000  0.0000000000000000  0.0000000000000000
  0.0000000000000000  0.0000000000000000  0.0000000000000000
  0.0000000000000000  0.0000000000000000  0.0000000000000000
  0.0000000000000000  0.0000000000000000  0.0000000000000000
  0.0000000000000000  0.0000000000000000  0.0000000000000000
  0.0000000000000000  0.0000000000000000  0.0000000000000000
  0.0000000000000000  0.0000000000000000  0.0000000000000000
  0.0000000000000000  0.0000000000000000  0.0000000000000000
  0.0000000000000000  0.0000000000000000  0.0000000000000000
  0.0000000000000000  0.0000000000000000  0.0000000000000000
  0.0000000000000000  0.0000000000000000  0.0000000000000000
  0.0000000000000000  0.0000000000000000  0.0000000000000000
  0.0000000000000000  0.0000000000000000  0.0000000000000000
  0.0000000000000000  0.0000000000000000  0.0000000000000000
  0.0000000000000000  0.0000000000000000  0.0000000000000000
  0.0000000000000000  0.0000000000000000  0.0000000000000000
  0.0000000000000000  0.0000000000000000  0.0000000000000000
  0.0000000000000000  0.0000000000000000  0.0000000000000000
  0.0000000000000000  0.0000000000000000  0.0000000000000000
  0.0000000000000000  0.0000000000000000  0.0000000000000000
  0.0000000000000000  0.0000000000000000  0.0000000000000000
  0.0000000000000000  0.0000000000000000  0.0000000000000000
  0.0000000000000000  0.0000000000000000  0.0000000000000000
  0.0000000000000000  0.0000000000000000  0.0000000000000000
  0.0000000000000000  0.0000000000000000  0.0000000000000000
  0.0000000000000000  0.0000000000000000  0.0000000000000000
  0.0000000000000000  0.0000000000000000  0.0000000000000000
  0.0000000000000000  0.0000000000000000  0.0000000000000000
  0.0000000000000000  0.0000000000000000  0.0000000000000000
  0.0000000000000000  0.0000000000000000  0.0000000000000000
  0.0000000000000000  0.0000000000000000  0.0000000000000000
  0.0000000000000000  0.0000000000000000  0.0000000000000000
  0.0000000000000000  0.0000000000000000  0.0000000000000000
  0.0000000000000000  0.0000000000000000  0.0000000000000000
  0.0000000000000000  0.0000000000000000  0.0000000000000000
  0.0000000000000000  0.0000000000000000  0.0000000000000000
  0.0000000000000000  0.0000000000000000  0.0000000000000000
  0.0000000000000000  0.0000000000000000  0.0000000000000000
  0.0000000000000000  0.0000000000000000  0.0000000000000000
  0.0000000000000000  0.0000000000000000  0.0000000000000000
  0.0000000000000000  0.0000000000000000  0.0000000000000000
  0.0000000000000000  0.0000000000000000  0.0000000000000000
  0.0000000000000000  0.0000000000000000  0.0000000000000000
  0.0000000000000000  0.0000000000000000  0.0000000000000000
  0.0000000000000000  0.0000000000000000  0.0000000000000000
  0.0000000000000000  0.0000000000000000  0.0000000000000000
  0.0000000000000000  0.0000000000000000  0.0000000000000000
  0.0000000000000000  0.0000000000000000  0.0000000000000000
  0.0000000000000000  0.0000000000000000  0.0000000000000000
  0.0000000000000000  0.0000000000000000  0.0000000000000000
  0.0000000000000000  0.0000000000000000  0.0000000000000000
  0.0000000000000000  0.0000000000000000  0.0000000000000000
  0.0000000000000000  0.0000000000000000  0.0000000000000000
  0.0000000000000000  0.0000000000000000  0.0000000000000000
  0.0000000000000000  0.0000000000000000  0.0000000000000000
  0.0000000000000000  0.0000000000000000  0.0000000000000000
  0.0000000000000000  0.0000000000000000  0.0000000000000000
  0.0000000000000000  0.0000000000000000  0.0000000000000000
  0.0000000000000000  0.0000000000000000  0.0000000000000000
  0.0000000000000000  0.0000000000000000  0.0000000000000000
  0.0000000000000000  0.0000000000000000  0.0000000000000000
  0.0000000000000000  0.0000000000000000  0.0000000000000000
  0.0000000000000000  0.0000000000000000  0.0000000000000000
  0.0000000000000000  0.0000000000000000  0.0000000000000000
  0.0000000000000000  0.0000000000000000  0.0000000000000000
  0.0000000000000000  0.0000000000000000  0.0000000000000000
  0.0000000000000000  0.0000000000000000  0.0000000000000000
  0.0000000000000000  0.0000000000000000  0.0000000000000000
  0.0000000000000000  0.0000000000000000  0.0000000000000000
  0.0000000000000000  0.0000000000000000  0.0000000000000000
  0.0000000000000000  0.0000000000000000  0.0000000000000000
  0.0000000000000000  0.0000000000000000  0.0000000000000000
  0.0000000000000000  0.0000000000000000  0.0000000000000000
  0.0000000000000000  0.0000000000000000  0.0000000000000000
  0.0000000000000000  0.0000000000000000  0.0000000000000000
  0.0000000000000000  0.0000000000000000  0.0000000000000000
  0.0000000000000000  0.0000000000000000  0.0000000000000000
  0.0000000000000000  0.0000000000000000  0.0000000000000000
  0.0000000000000000  0.0000000000000000  0.0000000000000000
  0.0000000000000000  0.0000000000000000  0.0000000000000000
  0.0000000000000000  0.0000000000000000  0.0000000000000000
  0.0000000000000000  0.0000000000000000  0.0000000000000000
