C  H  O  Pd
 1.0000000000000000
    12.2143708368485502    0.0000000000000000    0.0000000000000007
     0.0000000000000017   10.8116922467861709    0.0000000000000007
     0.0000000000000000    0.0000000000000000   30.6875744822424821
 C   H   O   Pd 
   1   3  65  64
Selective dynamics
Direct
  0.3322900912724110  0.4242747447029680  0.4835585369134016   T   T   T
  0.3493929745574199  0.3270088422200187  0.4744607285447475   T   T   T
  0.3602546536770599  0.4398476071065083  0.5175677883620273   T   T   T
  0.2424506897236798  0.4397827215260328  0.4821585316875222   T   T   T
  1.0031796615360142  0.3818273179013262  0.3962579937508958   T   T   T
  0.0000007785774361  0.8746366631057728  0.1990387117510663   F   F   F
  0.0018751022188422  0.1233154916388260  0.3966639981633938   T   T   T
  0.2516989161632990  0.3756565406529490  0.2988392138847039   T   T   T
  0.0000000000000000  0.6250000000000000  0.0986326357059468   F   F   F
  1.0019652874526714  0.8821074249738390  0.3959781003156067   T   T   T
  0.2505637354630144  0.1264461992032742  0.2986926924453148   T   T   T
  0.0000001489023768  0.6253641828117400  0.1990385236877962   F   F   F
  0.7521389263418520  0.3760672399564154  0.2984176778279491   T   T   T
  0.5004814994306708  0.8761901072795826  0.2983334847701991   T   T   T
  0.5017312472903429  0.6262139094100757  0.2990861250693043   T   T   T
  0.5017594005756582  0.8816828789449737  0.3958170469576179   T   T   T
  0.7531895089423989  0.6232208674784536  0.3964273021321690   T   T   T
  0.0007034921610493  0.8759524280910201  0.2983596827205457   T   T   T
  0.0020137172479084  0.6265063083501479  0.2987513155693142   T   T   T
  0.5051534857305069  0.6239430311651527  0.3958412687726389   T   T   T
  1.0017181215665731  0.3758328531638955  0.2985257199079334   T   T   T
  1.0035229690797631  0.6233941323786029  0.3963442087353124   T   T   T
  0.0000003667133454  0.1253639748692094  0.1990386316366852   F   F   F
  0.0000002712633380  0.3746360819220366  0.1990386009744299   F   F   F
  0.2500000000000000  0.3750000000000000  0.0986326357059468   F   F   F
 -0.0000000000000000  0.8750000000000001  0.0986326357059468   F   F   F
  0.2499998638177366  0.3746354513558036  0.1990391137478614   F   F   F
  0.2500000000000000  0.1250000000000000  0.0986326357059468   F   F   F
  0.2500003118916107  0.1253643742758414  0.1990388468832426   F   F   F
  0.0000000000000000  0.3750000000000000  0.0986326357059468   F   F   F
  0.0000000000000000  0.1250000000000000  0.0986326357059468   F   F   F
  0.3929008388635296  0.5114414696883020  0.4593864318266894   T   T   T
  0.0005843126496467  0.1265526251570362  0.2988015654095942   T   T   T
  0.7500000000000000  0.3750000000000000  0.0986326357059468   F   F   F
  0.2518877512986699  0.6236874076950650  0.3961502625225532   T   T   T
  0.7500004982174803  0.3746360905691121  0.1990382815073973   F   F   F
  0.2500000725690806  0.8746359244060554  0.1990388968624472   F   F   F
  0.2500000575081164  0.6253646356490544  0.1990388586176256   F   F   F
  0.2505441796305166  0.8761437718787081  0.2983679672077478   T   T   T
  0.2519992766669210  0.6261389160101439  0.2991279615078858   T   T   T
  0.2516119599886028  0.8820189624021201  0.3958911455080032   T   T   T
  0.7519747505786533  0.8820419248602897  0.3961003269483426   T   T   T
  0.2500000000000000  0.6250000000000000  0.0986326357059468   F   F   F
  0.5000000000000000  0.3750000000000000  0.0986326357059468   F   F   F
  0.4999999938080711  0.3746360868658646  0.1990385922315757   F   F   F
  0.4999998368048840  0.1253637532206347  0.1990388322615649   F   F   F
  0.5019491843638679  0.1228363804902830  0.3965063952787402   T   T   T
  0.5051222696467147  0.3795788198936564  0.3961049567653195   T   T   T
  0.5008364464423161  0.1261463132778508  0.2986286135700974   T   T   T
  0.7500000000000000  0.1250000000000000  0.0986326357059468   F   F   F
  0.5000000000000000  0.1250000000000000  0.0986326357059468   F   F   F
  0.2500000000000000  0.8750000000000001  0.0986326357059468   F   F   F
  0.5020308900594342  0.3757932447500796  0.2988427903938004   T   T   T
  0.5000000000000000  0.8750000000000001  0.0986326357059468   F   F   F
  0.2521014604356440  0.1233255612902884  0.3966194342648341   T   T   T
  0.7500000114023815  0.1253633646095497  0.1990386859845709   F   F   F
  0.2522202693556565  0.3809070575399935  0.3960385185912990   T   T   T
  0.7536285747552497  0.3816580652612650  0.3961204421494322   T   T   T
  0.7517646519190252  0.1230931801503283  0.3964266921557893   T   T   T
  0.7500000000000000  0.8750000000000001  0.0986326357059468   F   F   F
  0.7500000000000000  0.6250000000000000  0.0986326357059468   F   F   F
  0.7507833871113667  0.1265213152933036  0.2987023896241321   T   T   T
  0.7500002133337712  0.6253633161861426  0.1990388060063935   F   F   F
  0.7508200363862370  0.8760158900111019  0.2984135989998283   T   T   T
  0.7519283597774912  0.6266828752854059  0.2987796826595369   T   T   T
  0.5000001784867202  0.6253637522044813  0.1990389446145577   F   F   F
  0.4999995794704318  0.8746354974934157  0.1990386872989469   F   F   F
  0.7500002014178647  0.8746343896298040  0.1990386967425212   F   F   F
  0.5000000000000000  0.6250000000000000  0.0986326357059468   F   F   F
  0.0000000644614895  0.7499997055339565  0.1487767856559003   F   F   F
  0.5000828227838503  0.7500750874356185  0.2492236011247976   T   T   T
  0.1278205914192683  0.5026251819869552  0.3911862791772598   T   T   T
  0.6250000000000000  0.0000000000000000  0.0986326357059468   F   F   F
  0.5000000000000000  0.2500000000000000  0.0488797184302712   F   F   F
  0.3768788599291668  0.0023784603738939  0.3912217794249236   T   T   T
  0.2518632162950219  0.2512285316558986  0.3505846004673014   T   T   T
  0.2507183893353642  0.2507633897217640  0.2492195474138755   T   T   T
  0.2500000000000000  0.7500000000000000  0.0488797184302712   F   F   F
  0.3750000000000000  0.5000000000000000  0.0986326357059468   F   F   F
  0.3750013085010481  0.9999996425241101  0.1993178715196733   F   F   F
  0.2500002436688700  0.7499998371993483  0.1487767841964014   F   F   F
  0.5000000890861059  0.7499991063848873  0.1487764921061197   F   F   F
  0.1268401770563979  0.5010372916656374  0.2977861480087913   T   T   T
  0.6250000000000000  0.5000000000000000  0.0986326357059468   F   F   F
  0.5000000000000000  0.7500000000000000  0.0488797184302712   F   F   F
  0.0006317698303258  0.7504084963541721  0.2491806826126729   T   T   T
  0.6268407799793921  1.0023013102441714  0.3913283081906397   T   T   T
  0.5025715589278631  0.2511134699878746  0.3504677849165431   T   T   T
  0.6257514818777652  0.0011216263415749  0.2975388520401885   T   T   T
  0.5003418189893374  0.2506881043515057  0.2492329275606842   T   T   T
  1.0021684015458068  0.7521897907944199  0.3505233477765493   T   T   T
  0.6250011512513076  0.9999984342009582  0.1993176556340738   F   F   F
  0.5000000412290440  0.2500002002978380  0.1487764123606149   F   F   F
  0.1250000000000000  0.5000000000000000  0.0986326357059468   F   F   F
  0.0000000000000000  0.2500000000000000  0.0488797184302712   F   F   F
  0.3750004864510694  0.5000000253507203  0.1993181014519463   F   F   F
  0.1250005006673170  0.4999996619028680  0.1993179793341455   F   F   F
  0.2500000000000000  0.2500000000000000  0.0488797184302712   F   F   F
  0.5018731812313615  0.7521835375417807  0.3503099405375816   T   T   T
  0.2509963871933253  0.7502340207362234  0.2492465442257700   T   T   T
  0.6286235695229703  0.5019941389598520  0.3913549862083103   T   T   T
  0.8783737627709635  0.5028132408698153  0.3915498380531021   T   T   T
  0.7522276965544317  0.7521594948116879  0.3506345805098358   T   T   T
  0.1250000000000000  0.0000000000000000  0.0986326357059468   F   F   F
  0.7500000000000000  0.2500000000000000  0.0488797184302712   F   F   F
  0.8750000000000000  0.0000000000000000  0.0986326357059468   F   F   F
  0.8770154803900528  0.5014224683388950  0.2977090376649322   T   T   T
  0.1268844416102731  0.0028570218635423  0.3914106735379810   T   T   T
  0.7500000714258059  0.2500001333654533  0.1487767298788664   F   F   F
  0.8749990435797278  0.9999988729247118  0.1993176942245059   F   F   F
  0.7499999695802716  0.7499987873488344  0.1487766346932499   F   F   F
  0.1249992154568337  0.0000000621413549  0.1993179005561505   F   F   F
  0.7509350479066743  0.7505389894970108  0.2492129478035961   T   T   T
  0.7509048773839243  0.2505602019867255  0.2491947043840005   T   T   T
  0.8756469057242202  0.0012704840409352  0.2975489831744215   T   T   T
  0.0000001104490266  0.2500003692293262  0.1487770372582357   F   F   F
  0.1254661805673881  1.0013745259227484  0.2975666800782434   T   T   T
  0.3769434977702709  0.5008667364519805  0.2993241661268188   T   T   T
  0.3750000000000000  0.0000000000000000  0.0986326357059468   F   F   F
  0.2518176282097917  0.7520968373833319  0.3504079994614000   T   T   T
  0.3791744703560644  0.5022775016326916  0.3946434962706548   T   T   T
  0.6271310749154440  0.5012336730908523  0.2977971495713395   T   T   T
  0.6249997369785575  0.5000005243672183  0.1993177510521300   F   F   F
  0.2500001827845806  0.2500004790494265  0.1487770501254799   F   F   F
  0.3755184367628454  0.0012909589337671  0.2974701893454356   T   T   T
  0.8750000000000000  0.5000000000000000  0.0986326357059468   F   F   F
  0.7500000000000000  0.7500000000000000  0.0488797184302712   F   F   F
  0.8749998623887097  0.5000001886345932  0.1993177285951360   F   F   F
  0.0003564980747221  0.2504426880047181  0.2492521849507275   T   T   T
  0.8768903292202204  1.0027065559707209  0.3914910465638266   T   T   T
  0.7523399033894205  0.2519104072103082  0.3505790575489625   T   T   T
  1.0016101088489278  0.2518805524207799  0.3507582588250013   T   T   T
  0.0000000000000000  0.7500000000000000  0.0488797184302712   F   F   F
Cartesian
  0.0000000000000000  0.0000000000000000  0.0000000000000000
  0.0000000000000000  0.0000000000000000  0.0000000000000000
  0.0000000000000000  0.0000000000000000  0.0000000000000000
  0.0000000000000000  0.0000000000000000  0.0000000000000000
  0.0000000000000000  0.0000000000000000  0.0000000000000000
  0.0000000000000000  0.0000000000000000  0.0000000000000000
  0.0000000000000000  0.0000000000000000  0.0000000000000000
  0.0000000000000000  0.0000000000000000  0.0000000000000000
  0.0000000000000000  0.0000000000000000  0.0000000000000000
  0.0000000000000000  0.0000000000000000  0.0000000000000000
  0.0000000000000000  0.0000000000000000  0.0000000000000000
  0.0000000000000000  0.0000000000000000  0.0000000000000000
  0.0000000000000000  0.0000000000000000  0.0000000000000000
  0.0000000000000000  0.0000000000000000  0.0000000000000000
  0.0000000000000000  0.0000000000000000  0.0000000000000000
  0.0000000000000000  0.0000000000000000  0.0000000000000000
  0.0000000000000000  0.0000000000000000  0.0000000000000000
  0.0000000000000000  0.0000000000000000  0.0000000000000000
  0.0000000000000000  0.0000000000000000  0.0000000000000000
  0.0000000000000000  0.0000000000000000  0.0000000000000000
  0.0000000000000000  0.0000000000000000  0.0000000000000000
  0.0000000000000000  0.0000000000000000  0.0000000000000000
  0.0000000000000000  0.0000000000000000  0.0000000000000000
  0.0000000000000000  0.0000000000000000  0.0000000000000000
  0.0000000000000000  0.0000000000000000  0.0000000000000000
  0.0000000000000000  0.0000000000000000  0.0000000000000000
  0.0000000000000000  0.0000000000000000  0.0000000000000000
  0.0000000000000000  0.0000000000000000  0.0000000000000000
  0.0000000000000000  0.0000000000000000  0.0000000000000000
  0.0000000000000000  0.0000000000000000  0.0000000000000000
  0.0000000000000000  0.0000000000000000  0.0000000000000000
  0.0000000000000000  0.0000000000000000  0.0000000000000000
  0.0000000000000000  0.0000000000000000  0.0000000000000000
  0.0000000000000000  0.0000000000000000  0.0000000000000000
  0.0000000000000000  0.0000000000000000  0.0000000000000000
  0.0000000000000000  0.0000000000000000  0.0000000000000000
  0.0000000000000000  0.0000000000000000  0.0000000000000000
  0.0000000000000000  0.0000000000000000  0.0000000000000000
  0.0000000000000000  0.0000000000000000  0.0000000000000000
  0.0000000000000000  0.0000000000000000  0.0000000000000000
  0.0000000000000000  0.0000000000000000  0.0000000000000000
  0.0000000000000000  0.0000000000000000  0.0000000000000000
  0.0000000000000000  0.0000000000000000  0.0000000000000000
  0.0000000000000000  0.0000000000000000  0.0000000000000000
  0.0000000000000000  0.0000000000000000  0.0000000000000000
  0.0000000000000000  0.0000000000000000  0.0000000000000000
  0.0000000000000000  0.0000000000000000  0.0000000000000000
  0.0000000000000000  0.0000000000000000  0.0000000000000000
  0.0000000000000000  0.0000000000000000  0.0000000000000000
  0.0000000000000000  0.0000000000000000  0.0000000000000000
  0.0000000000000000  0.0000000000000000  0.0000000000000000
  0.0000000000000000  0.0000000000000000  0.0000000000000000
  0.0000000000000000  0.0000000000000000  0.0000000000000000
  0.0000000000000000  0.0000000000000000  0.0000000000000000
  0.0000000000000000  0.0000000000000000  0.0000000000000000
  0.0000000000000000  0.0000000000000000  0.0000000000000000
  0.0000000000000000  0.0000000000000000  0.0000000000000000
  0.0000000000000000  0.0000000000000000  0.0000000000000000
  0.0000000000000000  0.0000000000000000  0.0000000000000000
  0.0000000000000000  0.0000000000000000  0.0000000000000000
  0.0000000000000000  0.0000000000000000  0.0000000000000000
  0.0000000000000000  0.0000000000000000  0.0000000000000000
  0.0000000000000000  0.0000000000000000  0.0000000000000000
  0.0000000000000000  0.0000000000000000  0.0000000000000000
  0.0000000000000000  0.0000000000000000  0.0000000000000000
  0.0000000000000000  0.0000000000000000  0.0000000000000000
  0.0000000000000000  0.0000000000000000  0.0000000000000000
  0.0000000000000000  0.0000000000000000  0.0000000000000000
  0.0000000000000000  0.0000000000000000  0.0000000000000000
  0.0000000000000000  0.0000000000000000  0.0000000000000000
  0.0000000000000000  0.0000000000000000  0.0000000000000000
  0.0000000000000000  0.0000000000000000  0.0000000000000000
  0.0000000000000000  0.0000000000000000  0.0000000000000000
  0.0000000000000000  0.0000000000000000  0.0000000000000000
  0.0000000000000000  0.0000000000000000  0.0000000000000000
  0.0000000000000000  0.0000000000000000  0.0000000000000000
  0.0000000000000000  0.0000000000000000  0.0000000000000000
  0.0000000000000000  0.0000000000000000  0.0000000000000000
  0.0000000000000000  0.0000000000000000  0.0000000000000000
  0.0000000000000000  0.0000000000000000  0.0000000000000000
  0.0000000000000000  0.0000000000000000  0.0000000000000000
  0.0000000000000000  0.0000000000000000  0.0000000000000000
  0.0000000000000000  0.0000000000000000  0.0000000000000000
  0.0000000000000000  0.0000000000000000  0.0000000000000000
  0.0000000000000000  0.0000000000000000  0.0000000000000000
  0.0000000000000000  0.0000000000000000  0.0000000000000000
  0.0000000000000000  0.0000000000000000  0.0000000000000000
  0.0000000000000000  0.0000000000000000  0.0000000000000000
  0.0000000000000000  0.0000000000000000  0.0000000000000000
  0.0000000000000000  0.0000000000000000  0.0000000000000000
  0.0000000000000000  0.0000000000000000  0.0000000000000000
  0.0000000000000000  0.0000000000000000  0.0000000000000000
  0.0000000000000000  0.0000000000000000  0.0000000000000000
  0.0000000000000000  0.0000000000000000  0.0000000000000000
  0.0000000000000000  0.0000000000000000  0.0000000000000000
  0.0000000000000000  0.0000000000000000  0.0000000000000000
  0.0000000000000000  0.0000000000000000  0.0000000000000000
  0.0000000000000000  0.0000000000000000  0.0000000000000000
  0.0000000000000000  0.0000000000000000  0.0000000000000000
  0.0000000000000000  0.0000000000000000  0.0000000000000000
  0.0000000000000000  0.0000000000000000  0.0000000000000000
  0.0000000000000000  0.0000000000000000  0.0000000000000000
  0.0000000000000000  0.0000000000000000  0.0000000000000000
  0.0000000000000000  0.0000000000000000  0.0000000000000000
  0.0000000000000000  0.0000000000000000  0.0000000000000000
  0.0000000000000000  0.0000000000000000  0.0000000000000000
  0.0000000000000000  0.0000000000000000  0.0000000000000000
  0.0000000000000000  0.0000000000000000  0.0000000000000000
  0.0000000000000000  0.0000000000000000  0.0000000000000000
  0.0000000000000000  0.0000000000000000  0.0000000000000000
  0.0000000000000000  0.0000000000000000  0.0000000000000000
  0.0000000000000000  0.0000000000000000  0.0000000000000000
  0.0000000000000000  0.0000000000000000  0.0000000000000000
  0.0000000000000000  0.0000000000000000  0.0000000000000000
  0.0000000000000000  0.0000000000000000  0.0000000000000000
  0.0000000000000000  0.0000000000000000  0.0000000000000000
  0.0000000000000000  0.0000000000000000  0.0000000000000000
  0.0000000000000000  0.0000000000000000  0.0000000000000000
  0.0000000000000000  0.0000000000000000  0.0000000000000000
  0.0000000000000000  0.0000000000000000  0.0000000000000000
  0.0000000000000000  0.0000000000000000  0.0000000000000000
  0.0000000000000000  0.0000000000000000  0.0000000000000000
  0.0000000000000000  0.0000000000000000  0.0000000000000000
  0.0000000000000000  0.0000000000000000  0.0000000000000000
  0.0000000000000000  0.0000000000000000  0.0000000000000000
  0.0000000000000000  0.0000000000000000  0.0000000000000000
  0.0000000000000000  0.0000000000000000  0.0000000000000000
  0.0000000000000000  0.0000000000000000  0.0000000000000000
  0.0000000000000000  0.0000000000000000  0.0000000000000000
  0.0000000000000000  0.0000000000000000  0.0000000000000000
  0.0000000000000000  0.0000000000000000  0.0000000000000000
  0.0000000000000000  0.0000000000000000  0.0000000000000000
  0.0000000000000000  0.0000000000000000  0.0000000000000000
