C  O  Pd
 1.0000000000000000
    12.2143708368485502    0.0000000000000000    0.0000000000000007
     0.0000000000000017   10.8116922467861709    0.0000000000000007
     0.0000000000000000    0.0000000000000000   30.6875744822424821
 C   O   Pd 
   1  65  64
Selective dynamics
Direct
  0.8901509126960974  0.0128488262094648  0.4731306923988329   T   T   T
  0.2499481204219928  0.6214709853928798  0.3968293769538574   T   T   T
  0.7500000000000000  0.3750000000000000  0.0986326357059468   F   F   F
  0.4999289499494988  0.6214332577413213  0.3967913871432290   T   T   T
  0.4999343606606297  0.8801159106811708  0.3966461936457609   T   T   T
  0.5000536899118586  0.6257664789220549  0.2988568358225042   T   T   T
  0.4999858913947596  0.8748076101159825  0.2987857834403863   T   T   T
  0.7500970580392402  0.3746889037128925  0.2988158621299901   T   T   T
  0.2498663456045427  0.1255883292776110  0.2987756575996355   T   T   T
  0.7498221522066483  0.6214153146149056  0.3968935913275765   T   T   T
  1.0005828589053722  0.8790927318487523  0.3969918733797648   T   T   T
  0.0000000000000000  0.6250000000000000  0.0986326357059468   F   F   F
  0.2499231254396529  0.3749674538744565  0.2986095621038950   T   T   T
  0.0003692267128040  0.1225452148222296  0.3965067709599209   T   T   T
  0.0000007785774361  0.8746366631057728  0.1990387117510663   F   F   F
  0.9998885605514878  0.3802919543016889  0.3965056420354282   T   T   T
  0.0000001489023768  0.6253641828117400  0.1990385236877962   F   F   F
 -0.0002547505918828  0.8749379398097968  0.2988998756951358   T   T   T
 -0.0002415469146521  0.1256552568405563  0.2989161794833506   T   T   T
 -0.0000388274500907  0.6260515503898839  0.2989357172243893   T   T   T
  0.9998846802506638  0.3749466627113515  0.2986876272429144   T   T   T
  1.0000447632368961  0.6214883057944359  0.3968488735903034   T   T   T
  0.0000003667133454  0.1253639748692094  0.1990386316366852   F   F   F
  0.0000002712633380  0.3746360819220366  0.1990386009744299   F   F   F
  0.2500000000000000  0.3750000000000000  0.0986326357059468   F   F   F
 -0.0000000000000000  0.8750000000000001  0.0986326357059468   F   F   F
  0.2499998638177366  0.3746354513558036  0.1990391137478614   F   F   F
  0.2500000000000000  0.1250000000000000  0.0986326357059468   F   F   F
  0.2500003118916107  0.1253643742758414  0.1990388468832426   F   F   F
  0.0000000000000000  0.3750000000000000  0.0986326357059468   F   F   F
  0.0000000000000000  0.1250000000000000  0.0986326357059468   F   F   F
  0.7500000000000000  0.1250000000000000  0.0986326357059468   F   F   F
  0.7500004982174803  0.3746360905691121  0.1990382815073973   F   F   F
  0.9683647123868147  0.0442748161310985  0.4909377620377426   T   T   T
  0.7500272932483586  0.1257323454401770  0.2990655439771436   T   T   T
  0.5000501506953120  0.1214063114860035  0.3965787714063633   T   T   T
  0.4999140998142445  0.3800810858456915  0.3964620367558663   T   T   T
  0.4999857215864303  0.1255710462998032  0.2987936557374686   T   T   T
  0.5000176505691648  0.3748735100166972  0.2986591471154870   T   T   T
  0.4999998368048840  0.1253637532206347  0.1990388322615649   F   F   F
  0.4999999938080711  0.3746360868658646  0.1990385922315757   F   F   F
  0.5000000000000000  0.1250000000000000  0.0986326357059468   F   F   F
  0.5000000000000000  0.3750000000000000  0.0986326357059468   F   F   F
  0.7500000114023815  0.1253633646095497  0.1990386859845709   F   F   F
  0.2499670498361137  0.8801091374978646  0.3967083512414554   T   T   T
  0.2499765797240974  0.6258256166708203  0.2988558895638560   T   T   T
  0.2498761770306475  0.8748088222759428  0.2988017535899705   T   T   T
  0.2500000575081164  0.6253646356490544  0.1990388586176256   F   F   F
  0.2500000725690806  0.8746359244060554  0.1990388968624472   F   F   F
  0.2500000000000000  0.6250000000000000  0.0986326357059468   F   F   F
  0.7493045391600202  0.8787096047853303  0.3970757884548978   T   T   T
  0.2498916587519010  0.1215738172628982  0.3965602429066929   T   T   T
  0.2500000000000000  0.8750000000000001  0.0986326357059468   F   F   F
  0.2499187570101535  0.3801283940470171  0.3964343273574411   T   T   T
  0.7500428441026528  0.3803284055210674  0.3966864951021070   T   T   T
  0.7495588590677070  0.1228463735191493  0.3971701568848645   T   T   T
  0.7500000000000000  0.6250000000000000  0.0986326357059468   F   F   F
  0.7500002014178647  0.8746343896298040  0.1990386967425212   F   F   F
  0.7500000000000000  0.8750000000000001  0.0986326357059468   F   F   F
  0.7500166374692682  0.8748906595566683  0.2989289651530807   T   T   T
  0.7499321583736690  0.6259645501443778  0.2989557111118852   T   T   T
  0.5000001784867202  0.6253637522044813  0.1990389446145577   F   F   F
  0.4999995794704318  0.8746354974934157  0.1990386872989469   F   F   F
  0.5000000000000000  0.6250000000000000  0.0986326357059468   F   F   F
  0.5000000000000000  0.8750000000000001  0.0986326357059468   F   F   F
  0.7500002133337712  0.6253633161861426  0.1990388060063935   F   F   F
  0.2500002436688700  0.7499998371993483  0.1487767841964014   F   F   F
  0.5000492221077621  0.7501178906538805  0.2493234349071415   T   T   T
  0.1249477325124548  0.5008621294933340  0.3917392591847065   T   T   T
  0.6250000000000000  0.0000000000000000  0.0986326357059468   F   F   F
  0.5000000000000000  0.2500000000000000  0.0488797184302712   F   F   F
  0.2498371366598007  0.2506383317566956  0.3508233366945765   T   T   T
  0.2500000000000000  0.2500000000000000  0.0488797184302712   F   F   F
  0.2499863005411075  0.2500265897764389  0.2492610358438989   T   T   T
  0.2500000000000000  0.7500000000000000  0.0488797184302712   F   F   F
  0.3750000000000000  0.5000000000000000  0.0986326357059468   F   F   F
  0.3750013085010481  0.9999996425241101  0.1993178715196733   F   F   F
  0.3750004864510694  0.5000000253507203  0.1993181014519463   F   F   F
  0.3749919522276108  0.0008199189065955  0.3917029683243412   T   T   T
  0.0000000644614895  0.7499997055339565  0.1487767856559003   F   F   F
  0.0000000000000000  0.2500000000000000  0.0488797184302712   F   F   F
  0.1250005006673170  0.4999996619028680  0.1993179793341455   F   F   F
  0.6250000000000000  0.5000000000000000  0.0986326357059468   F   F   F
  0.5000000000000000  0.7500000000000000  0.0488797184302712   F   F   F
 -0.0001195610974518  0.7502379201145476  0.2493484863589288   T   T   T
  0.6252916328242288  1.0007357952455207  0.3920248577533011   T   T   T
  0.5000460612203246  0.2505219781551050  0.3508696849021032   T   T   T
  0.1249032132760961  0.5004491231937629  0.2978274324123930   T   T   T
  0.6249690098139761  0.0002596410795904  0.2979693196714833   T   T   T
  0.4999631388408327  0.2500231168392110  0.2492776427680296   T   T   T
  1.0002636050829576  0.7505192335634249  0.3511023969081499   T   T   T
  0.6250011512513076  0.9999984342009582  0.1993176556340738   F   F   F
  0.5000000412290440  0.2500002002978380  0.1487764123606149   F   F   F
  0.1250000000000000  0.5000000000000000  0.0986326357059468   F   F   F
  0.2500001827845806  0.2500004790494265  0.1487770501254799   F   F   F
  0.5000000890861059  0.7499991063848873  0.1487764921061197   F   F   F
  0.2499312515255383  0.7501533944298634  0.2493277284986158   T   T   T
  0.1248739765519293  1.0002372633442482  0.2979075806036917   T   T   T
  0.3750000000000000  0.0000000000000000  0.0986326357059468   F   F   F
  0.8749447839450921  0.5010322578963690  0.3917426552032975   T   T   T
  0.0000000000000000  0.7500000000000000  0.0488797184302712   F   F   F
  0.7495435481202832  0.7504942801483350  0.3511536910703888   T   T   T
  0.1250000000000000  0.0000000000000000  0.0986326357059468   F   F   F
  0.7500000000000000  0.2500000000000000  0.0488797184302712   F   F   F
  0.8750000000000000  0.0000000000000000  0.0986326357059468   F   F   F
  0.8749425665801220  0.5004789403336593  0.2979300317774145   T   T   T
  0.1249586143980123  0.0008059220251586  0.3917989737217221   T   T   T
  0.7500000714258059  0.2500001333654533  0.1487767298788664   F   F   F
  0.8749990435797278  0.9999988729247118  0.1993176942245059   F   F   F
  0.7499999695802716  0.7499987873488344  0.1487766346932499   F   F   F
  0.1249992154568337  0.0000000621413549  0.1993179005561505   F   F   F
  0.7500285618054623  0.7501919877743076  0.2493671747981697   T   T   T
  0.7501676446452697  0.2500250220420931  0.2493625525375613   T   T   T
  0.8748681066434053  0.0003156491738870  0.2982128670944220   T   T   T
  0.0000001104490266  0.2500003692293262  0.1487770372582357   F   F   F
  0.7498808706997133  0.2507357595661489  0.3511075303107671   T   T   T
  0.4999583959562707  0.7505380481580457  0.3510470530552395   T   T   T
  0.8747584766501040  1.0006403514899229  0.3929946040808521   T   T   T
 -0.0002208742434170  0.2500512801298452  0.2492890274913145   T   T   T
  0.8749998623887097  0.5000001886345932  0.1993177285951360   F   F   F
  0.7500000000000000  0.7500000000000000  0.0488797184302712   F   F   F
  0.8750000000000000  0.5000000000000000  0.0986326357059468   F   F   F
  1.0000523763643985  0.2509979844180942  0.3507743086010747   T   T   T
  0.3749114405270574  0.0001790546300628  0.2978804314433890   T   T   T
  0.6249997369785575  0.5000005243672183  0.1993177510521300   F   F   F
  0.6250860759937737  0.5002841401550290  0.2978707814179238   T   T   T
  0.3749214887285930  0.5008202687002226  0.3917095102792721   T   T   T
  0.2499788174536172  0.7505578206383315  0.3510772394521808   T   T   T
  0.3750004658888723  0.5003817926340617  0.2978237940397735   T   T   T
  0.6249378417525326  0.5008025375194454  0.3917998243853627   T   T   T
Cartesian
  0.0000000000000000  0.0000000000000000  0.0000000000000000
  0.0000000000000000  0.0000000000000000  0.0000000000000000
  0.0000000000000000  0.0000000000000000  0.0000000000000000
  0.0000000000000000  0.0000000000000000  0.0000000000000000
  0.0000000000000000  0.0000000000000000  0.0000000000000000
  0.0000000000000000  0.0000000000000000  0.0000000000000000
  0.0000000000000000  0.0000000000000000  0.0000000000000000
  0.0000000000000000  0.0000000000000000  0.0000000000000000
  0.0000000000000000  0.0000000000000000  0.0000000000000000
  0.0000000000000000  0.0000000000000000  0.0000000000000000
  0.0000000000000000  0.0000000000000000  0.0000000000000000
  0.0000000000000000  0.0000000000000000  0.0000000000000000
  0.0000000000000000  0.0000000000000000  0.0000000000000000
  0.0000000000000000  0.0000000000000000  0.0000000000000000
  0.0000000000000000  0.0000000000000000  0.0000000000000000
  0.0000000000000000  0.0000000000000000  0.0000000000000000
  0.0000000000000000  0.0000000000000000  0.0000000000000000
  0.0000000000000000  0.0000000000000000  0.0000000000000000
  0.0000000000000000  0.0000000000000000  0.0000000000000000
  0.0000000000000000  0.0000000000000000  0.0000000000000000
  0.0000000000000000  0.0000000000000000  0.0000000000000000
  0.0000000000000000  0.0000000000000000  0.0000000000000000
  0.0000000000000000  0.0000000000000000  0.0000000000000000
  0.0000000000000000  0.0000000000000000  0.0000000000000000
  0.0000000000000000  0.0000000000000000  0.0000000000000000
  0.0000000000000000  0.0000000000000000  0.0000000000000000
  0.0000000000000000  0.0000000000000000  0.0000000000000000
  0.0000000000000000  0.0000000000000000  0.0000000000000000
  0.0000000000000000  0.0000000000000000  0.0000000000000000
  0.0000000000000000  0.0000000000000000  0.0000000000000000
  0.0000000000000000  0.0000000000000000  0.0000000000000000
  0.0000000000000000  0.0000000000000000  0.0000000000000000
  0.0000000000000000  0.0000000000000000  0.0000000000000000
  0.0000000000000000  0.0000000000000000  0.0000000000000000
  0.0000000000000000  0.0000000000000000  0.0000000000000000
  0.0000000000000000  0.0000000000000000  0.0000000000000000
  0.0000000000000000  0.0000000000000000  0.0000000000000000
  0.0000000000000000  0.0000000000000000  0.0000000000000000
  0.0000000000000000  0.0000000000000000  0.0000000000000000
  0.0000000000000000  0.0000000000000000  0.0000000000000000
  0.0000000000000000  0.0000000000000000  0.0000000000000000
  0.0000000000000000  0.0000000000000000  0.0000000000000000
  0.0000000000000000  0.0000000000000000  0.0000000000000000
  0.0000000000000000  0.0000000000000000  0.0000000000000000
  0.0000000000000000  0.0000000000000000  0.0000000000000000
  0.0000000000000000  0.0000000000000000  0.0000000000000000
  0.0000000000000000  0.0000000000000000  0.0000000000000000
  0.0000000000000000  0.0000000000000000  0.0000000000000000
  0.0000000000000000  0.0000000000000000  0.0000000000000000
  0.0000000000000000  0.0000000000000000  0.0000000000000000
  0.0000000000000000  0.0000000000000000  0.0000000000000000
  0.0000000000000000  0.0000000000000000  0.0000000000000000
  0.0000000000000000  0.0000000000000000  0.0000000000000000
  0.0000000000000000  0.0000000000000000  0.0000000000000000
  0.0000000000000000  0.0000000000000000  0.0000000000000000
  0.0000000000000000  0.0000000000000000  0.0000000000000000
  0.0000000000000000  0.0000000000000000  0.0000000000000000
  0.0000000000000000  0.0000000000000000  0.0000000000000000
  0.0000000000000000  0.0000000000000000  0.0000000000000000
  0.0000000000000000  0.0000000000000000  0.0000000000000000
  0.0000000000000000  0.0000000000000000  0.0000000000000000
  0.0000000000000000  0.0000000000000000  0.0000000000000000
  0.0000000000000000  0.0000000000000000  0.0000000000000000
  0.0000000000000000  0.0000000000000000  0.0000000000000000
  0.0000000000000000  0.0000000000000000  0.0000000000000000
  0.0000000000000000  0.0000000000000000  0.0000000000000000
  0.0000000000000000  0.0000000000000000  0.0000000000000000
  0.0000000000000000  0.0000000000000000  0.0000000000000000
  0.0000000000000000  0.0000000000000000  0.0000000000000000
  0.0000000000000000  0.0000000000000000  0.0000000000000000
  0.0000000000000000  0.0000000000000000  0.0000000000000000
  0.0000000000000000  0.0000000000000000  0.0000000000000000
  0.0000000000000000  0.0000000000000000  0.0000000000000000
  0.0000000000000000  0.0000000000000000  0.0000000000000000
  0.0000000000000000  0.0000000000000000  0.0000000000000000
  0.0000000000000000  0.0000000000000000  0.0000000000000000
  0.0000000000000000  0.0000000000000000  0.0000000000000000
  0.0000000000000000  0.0000000000000000  0.0000000000000000
  0.0000000000000000  0.0000000000000000  0.0000000000000000
  0.0000000000000000  0.0000000000000000  0.0000000000000000
  0.0000000000000000  0.0000000000000000  0.0000000000000000
  0.0000000000000000  0.0000000000000000  0.0000000000000000
  0.0000000000000000  0.0000000000000000  0.0000000000000000
  0.0000000000000000  0.0000000000000000  0.0000000000000000
  0.0000000000000000  0.0000000000000000  0.0000000000000000
  0.0000000000000000  0.0000000000000000  0.0000000000000000
  0.0000000000000000  0.0000000000000000  0.0000000000000000
  0.0000000000000000  0.0000000000000000  0.0000000000000000
  0.0000000000000000  0.0000000000000000  0.0000000000000000
  0.0000000000000000  0.0000000000000000  0.0000000000000000
  0.0000000000000000  0.0000000000000000  0.0000000000000000
  0.0000000000000000  0.0000000000000000  0.0000000000000000
  0.0000000000000000  0.0000000000000000  0.0000000000000000
  0.0000000000000000  0.0000000000000000  0.0000000000000000
  0.0000000000000000  0.0000000000000000  0.0000000000000000
  0.0000000000000000  0.0000000000000000  0.0000000000000000
  0.0000000000000000  0.0000000000000000  0.0000000000000000
  0.0000000000000000  0.0000000000000000  0.0000000000000000
  0.0000000000000000  0.0000000000000000  0.0000000000000000
  0.0000000000000000  0.0000000000000000  0.0000000000000000
  0.0000000000000000  0.0000000000000000  0.0000000000000000
  0.0000000000000000  0.0000000000000000  0.0000000000000000
  0.0000000000000000  0.0000000000000000  0.0000000000000000
  0.0000000000000000  0.0000000000000000  0.0000000000000000
  0.0000000000000000  0.0000000000000000  0.0000000000000000
  0.0000000000000000  0.0000000000000000  0.0000000000000000
  0.0000000000000000  0.0000000000000000  0.0000000000000000
  0.0000000000000000  0.0000000000000000  0.0000000000000000
  0.0000000000000000  0.0000000000000000  0.0000000000000000
  0.0000000000000000  0.0000000000000000  0.0000000000000000
  0.0000000000000000  0.0000000000000000  0.0000000000000000
  0.0000000000000000  0.0000000000000000  0.0000000000000000
  0.0000000000000000  0.0000000000000000  0.0000000000000000
  0.0000000000000000  0.0000000000000000  0.0000000000000000
  0.0000000000000000  0.0000000000000000  0.0000000000000000
  0.0000000000000000  0.0000000000000000  0.0000000000000000
  0.0000000000000000  0.0000000000000000  0.0000000000000000
  0.0000000000000000  0.0000000000000000  0.0000000000000000
  0.0000000000000000  0.0000000000000000  0.0000000000000000
  0.0000000000000000  0.0000000000000000  0.0000000000000000
  0.0000000000000000  0.0000000000000000  0.0000000000000000
  0.0000000000000000  0.0000000000000000  0.0000000000000000
  0.0000000000000000  0.0000000000000000  0.0000000000000000
  0.0000000000000000  0.0000000000000000  0.0000000000000000
  0.0000000000000000  0.0000000000000000  0.0000000000000000
  0.0000000000000000  0.0000000000000000  0.0000000000000000
  0.0000000000000000  0.0000000000000000  0.0000000000000000
  0.0000000000000000  0.0000000000000000  0.0000000000000000
  0.0000000000000000  0.0000000000000000  0.0000000000000000
  0.0000000000000000  0.0000000000000000  0.0000000000000000
