C  H  O  Pd
 1.0000000000000000
     9.5317092920176041    0.0000000000000000    0.0000000000000000
     0.0000000000000000   12.8477517144159332    0.0000000000000000
     0.0000000000000000    0.0000000000000000   32.1028443220921673
 C   H   O   Pd 
   1   3  97  48
Selective dynamics
Direct
  0.8815226132606283  0.0866151734098882  0.4721114334271470   T   T   T
  0.8264291238742214  0.0126668504415007  0.4645867716333348   T   T   T
  0.8089719992903788  0.1531428097603008  0.4670756465975325   T   T   T
  0.9150907962814612  0.0847527219815456  0.5050879695791560   T   T   T
  0.3306132102173703  0.3803381658584164  0.4263799844489928   T   T   T
  0.3322162982934238  0.1465032005870893  0.3236632445309121   T   T   T
  0.3311603707397488  0.1058133979329832  0.2477363724275897   T   T   T
  0.8293491698053733  0.0245025925868882  0.3788762191667129   T   T   T
  0.8333333333333357  0.2789897956032235  0.0851486940133555   F   F   F
  0.3314545896785669  0.8478338572168893  0.3489965062981662   T   T   T
  0.3303771371044074  0.8827692635963758  0.4258549761406888   T   T   T
  0.4976977038991981  0.7145246576463528  0.3983746396252686   T   T   T
  0.4978390185076356  0.5248388037165718  0.3903518705726884   T   T   T
  0.3326806655768783  0.6051634604172752  0.2476607751623130   T   T   T
  0.3321908486705386  0.6430221075758089  0.3241986738410841   T   T   T
  0.4999976639328576  0.5290466686199733  0.1895761637574985   F   F   F
  0.3333333333333357  0.8750000000000000  0.1467763379882641   F   F   F
  0.3333318648019943  0.8750000864356643  0.2250895420487288   F   F   F
  0.4999976377976332  0.7209531764862156  0.1895758217978223   F   F   F
  0.3333333333333357  0.6250000000000000  0.0467248317610185   F   F   F
  0.3333333333333357  0.6250000000000000  0.1235725562656853   F   F   F
  0.5000000000000000  0.9710102043967765  0.0851486940133555   F   F   F
  0.5000000000000000  0.7789897956032235  0.0851486940133555   F   F   F
  0.6651820981458191  0.8823616201761058  0.4258598954798832   T   T   T
  0.4988031543978948  0.9695386114504663  0.2967440725739191   T   T   T
  0.4989042883426171  0.7774932611424992  0.2781090142077018   T   T   T
  0.4987810461092492  0.4693333139123545  0.2973204613580128   T   T   T
  0.6637745575404222  0.3505701569143379  0.3492856489177001   T   T   T
  1.0065259205852131  0.0978271911835103  0.4491204065167362   T   T   T
  0.8309070990917573  0.7150635363055772  0.3985900239520510   T   T   T
  0.6658274042181941  0.6050197743319899  0.2476438019159870   T   T   T
  0.8310861283957047  0.5251110410301889  0.3906094555833263   T   T   T
  0.8333333333333357  0.4710102043967765  0.0851486940133555   F   F   F
  0.8333339558353259  0.0290462541212847  0.1895758119370538   F   F   F
  0.6666666666666643  0.1250000000000000  0.1235725562656853   F   F   F
  0.3333333333333357  0.3750000000000000  0.1467763379882641   F   F   F
  0.8323115582257636  0.9688000060223062  0.2955057971225951   T   T   T
  0.4971229449478783  0.2134629684527446  0.3993757775311898   T   T   T
  0.4988306664650888  0.2781750106126750  0.2779699395982547   T   T   T
  0.8333333409382341  0.7209531152421449  0.1895756052193645   F   F   F
  0.8321115633315326  0.7773056967636816  0.2780460752697299   T   T   T
  0.6666666666666643  0.8750000000000000  0.1467763379882641   F   F   F
  0.6666655358647100  0.8750000108504334  0.2250883423864175   F   F   F
  0.8333333008508301  0.5290468981117665  0.1895759154731361   F   F   F
  0.6666666666666643  0.6250000000000000  0.0467248317610185   F   F   F
  0.6666666666666643  0.6250000000000000  0.1235725562656853   F   F   F
  0.8333333333333357  0.9710102043967765  0.0851486940133555   F   F   F
  0.8333333333333357  0.7789897956032235  0.0851486940133555   F   F   F
  0.6654434568437007  0.6431642720944640  0.3241854645946756   T   T   T
  0.4970320692093197  0.0244895000207151  0.3878444697925652   T   T   T
  0.3314309417711306  0.3504498916804502  0.3493652616159160   T   T   T
 -0.0012019433296176  0.1459900904818885  0.3251907349451325   T   T   T
  0.0000003549571299  0.8750000107713112  0.2250882234763902   F   F   F
  0.8320517483610934  0.4693762696132842  0.2972452564113414   T   T   T
  0.8324772043219779  0.2782572510702692  0.2784043852514055   T   T   T
  0.6666666666666643  0.3750000000000000  0.1467763379882641   F   F   F
  0.6666664721965994  0.3750001394610554  0.2250885421256194   F   F   F
  0.8333336160653568  0.2209531548581329  0.1895755782756444   F   F   F
  0.6666666666666643  0.1250000000000000  0.0467248317610185   F   F   F
  0.3333326882537072  0.3749997926392740  0.2250885499289598   F   F   F
  0.6637601562026142  0.8482205895937860  0.3488801250752778   T   T   T
  0.4999980417944865  0.0290462347966568  0.1895760715474884   F   F   F
  0.1657029010638514  0.4694202245542570  0.2973417605560948   T   T   T
  0.1666659623339084  0.7209538630219027  0.1895756713862576   F   F   F
  0.1666659175182925  0.5290462010831961  0.1895759780398522   F   F   F
  0.0000000000000000  0.6250000000000000  0.0467248317610185   F   F   F
  0.4999988243319552  0.2209529651499486  0.1895755725505499   F   F   F
  0.1666666666666643  0.9710102043967765  0.0851486940133555   F   F   F
  0.1666666666666643  0.7789897956032235  0.0851486940133555   F   F   F
 -0.0020675661146985  0.3512246386861568  0.3492249568555243   T   T   T
  0.8270979108119759  0.2135863915534048  0.3976120562037909   T   T   T
  0.9971086964884978  0.3804107724477338  0.4260671146151887   T   T   T
  0.1672593758096242  0.2137357321273558  0.3984559673000447   T   T   T
  0.1643398163060787  0.0238473086528536  0.3774357414048162   T   T   T
  0.9991542857541267  0.1051060179966598  0.2479870383442901   T   T   T
  0.1653150488291498  0.2782923974448853  0.2783690947040985   T   T   T
  0.6646115426222177  0.3794625331684266  0.4263970139382300   T   T   T
  0.1655815659201270  0.9686802810764853  0.2951365525194470   T   T   T
  0.0000000000000000  0.3750000000000000  0.1467763379882641   F   F   F
  0.0000007107164886  0.3749999603060230  0.2250885125878732   F   F   F
  0.6648172230797605  0.1461372496851165  0.3234317760761000   T   T   T
  0.6671180585291864  0.1061132787368851  0.2476562841806770   T   T   T
  0.1666663400494306  0.0290460185855896  0.1895759024921872   F   F   F
  0.0000000000000000  0.1250000000000000  0.0467248317610185   F   F   F
  0.0000000000000000  0.1250000000000000  0.1235725562656853   F   F   F
  0.1666666666666643  0.4710102043967765  0.0851486940133555   F   F   F
  0.1666666666666643  0.2789897956032235  0.0851486940133555   F   F   F
  0.0000000000000000  0.8750000000000000  0.1467763379882641   F   F   F
  0.1658863404255486  0.7772091066501283  0.2779834051508384   T   T   T
  0.1666663027958614  0.2209539505437224  0.1895756072453514   F   F   F
  0.3333333333333357  0.1250000000000000  0.0467248317610185   F   F   F
  0.1643609987454114  0.5250893082606201  0.3905729199874285   T   T   T
  0.5000000000000000  0.2789897956032235  0.0851486940133555   F   F   F
  0.1646919877814063  0.7149651855045731  0.3988511159347847   T   T   T
  0.9969706763898007  0.8811964072279980  0.4255045146514960   T   T   T
  0.3333333333333357  0.1250000000000000  0.1235725562656853   F   F   F
  0.9991618320910682  0.6050891924980863  0.2476353229164254   T   T   T
  0.5000000000000000  0.4710102043967765  0.0851486940133555   F   F   F
 -0.0019711822571561  0.8472399916896192  0.3487115541738334   T   T   T
 -0.0011353688519962  0.6430106282324193  0.3242168553107541   T   T   T
  0.0000000000000000  0.6250000000000000  0.1235725562656853   F   F   F
  0.6652298552975906  0.8727798609281392  0.2876283217054158   T   T   T
  0.8322700703371984  0.6229581757915950  0.2858221971830462   T   T   T
  0.6666666666666643  0.8750000000000000  0.0851486940133555   F   F   F
  0.1644352820436382  0.1238004404137946  0.2863350085602951   T   T   T
  0.3304805720076723  0.1202888213554763  0.3849102210261952   T   T   T
  0.8333333333333357  0.6250000000000000  0.0851486940133555   F   F   F
  0.1666666847735583  0.3750001305958783  0.1858643915636921   F   F   F
  0.3325493169391001  0.8726300371628763  0.2876847595597570   T   T   T
  0.5000014304295636  0.3749999974283293  0.1858644222348644   F   F   F
  0.3333354546060130  0.1249999476819220  0.1847578122735502   F   F   F
  0.4987890994669220  0.1234558443178853  0.2853849239738899   T   T   T
  0.8310420281374657  0.8701028869812537  0.3875995687439236   T   T   T
  0.6644687505895646  0.6208781251130405  0.3856175526477598   T   T   T
  0.0000000000000000  0.3750000000000000  0.0851486940133555   F   F   F
  0.9999970987911158  0.1250000184490408  0.1847578466783704   F   F   F
  0.3333333333333357  0.3750000000000000  0.0851486940133555   F   F   F
  0.1643230306294842  0.3691803129085478  0.3881196180618955   T   T   T
  0.1666666666666643  0.1250000000000000  0.0851486940133555   F   F   F
  0.6666655568862668  0.6249997720375131  0.1847577838516319   F   F   F
  0.3322571758655760  0.3732555322521843  0.2879016407776186   T   T   T
  0.8333311666192106  0.8749995704976669  0.1858642171120021   F   F   F
  0.3333333333333357  0.8750000000000000  0.0851486940133555   F   F   F
  0.5000000000000000  0.1250000000000000  0.0851486940133555   F   F   F
  0.5000005790671146  0.8749996008049955  0.1858647103970161   F   F   F
  0.4974189338882416  0.8693021281344568  0.3878040899889163   T   T   T
  0.3309401700515092  0.6209127221219870  0.3856730416039529   T   T   T
  0.3333348655297959  0.6249998188937667  0.1847577531331055   F   F   F
  0.9999968754065039  0.6249998164331720  0.1847577848474051   F   F   F
  0.8333333333333357  0.1250000000000000  0.0851486940133555   F   F   F
  0.6666666666666643  0.3750000000000000  0.0851486940133555   F   F   F
  0.1666668975657561  0.8749998441626324  0.1858646099702742   F   F   F
  0.9978609022971692  0.6211227573019900  0.3857581941481185   T   T   T
  0.6622715806834393  0.1204899780496511  0.3845732727769628   T   T   T
  0.6666662687465629  0.1249996349829204  0.1847578301666214   F   F   F
  0.0000000000000000  0.8750000000000000  0.0851486940133555   F   F   F
  0.1666666666666643  0.6250000000000000  0.0851486940133555   F   F   F
  0.8332855665929105  0.1237803674573358  0.2862844237522264   T   T   T
  0.6653248167136342  0.3732345933791824  0.2878312442513907   T   T   T
  0.5000000000000000  0.6250000000000000  0.0851486940133555   F   F   F
  0.9968174658484638  0.1187837050658488  0.3880914362870128   T   T   T
  0.4990292592506147  0.6229221573400309  0.2858449813914409   T   T   T
  0.1657315318788930  0.6229467243788056  0.2858154675783311   T   T   T
  0.8333316115610666  0.3750001538755701  0.1858644410325545   F   F   F
  0.9989009884286257  0.8724672603738909  0.2875715783280079   T   T   T
  0.9988913078399593  0.3734646017971799  0.2878285352197180   T   T   T
  0.8307668314129906  0.3695196248455122  0.3879475696801047   T   T   T
  0.4974402637934290  0.3687027876929634  0.3884176338123498   T   T   T
  0.1641555330697108  0.8704756925046921  0.3878264931018946   T   T   T
Cartesian
  0.0000000000000000  0.0000000000000000  0.0000000000000000
  0.0000000000000000  0.0000000000000000  0.0000000000000000
  0.0000000000000000  0.0000000000000000  0.0000000000000000
  0.0000000000000000  0.0000000000000000  0.0000000000000000
  0.0000000000000000  0.0000000000000000  0.0000000000000000
  0.0000000000000000  0.0000000000000000  0.0000000000000000
  0.0000000000000000  0.0000000000000000  0.0000000000000000
  0.0000000000000000  0.0000000000000000  0.0000000000000000
  0.0000000000000000  0.0000000000000000  0.0000000000000000
  0.0000000000000000  0.0000000000000000  0.0000000000000000
  0.0000000000000000  0.0000000000000000  0.0000000000000000
  0.0000000000000000  0.0000000000000000  0.0000000000000000
  0.0000000000000000  0.0000000000000000  0.0000000000000000
  0.0000000000000000  0.0000000000000000  0.0000000000000000
  0.0000000000000000  0.0000000000000000  0.0000000000000000
  0.0000000000000000  0.0000000000000000  0.0000000000000000
  0.0000000000000000  0.0000000000000000  0.0000000000000000
  0.0000000000000000  0.0000000000000000  0.0000000000000000
  0.0000000000000000  0.0000000000000000  0.0000000000000000
  0.0000000000000000  0.0000000000000000  0.0000000000000000
  0.0000000000000000  0.0000000000000000  0.0000000000000000
  0.0000000000000000  0.0000000000000000  0.0000000000000000
  0.0000000000000000  0.0000000000000000  0.0000000000000000
  0.0000000000000000  0.0000000000000000  0.0000000000000000
  0.0000000000000000  0.0000000000000000  0.0000000000000000
  0.0000000000000000  0.0000000000000000  0.0000000000000000
  0.0000000000000000  0.0000000000000000  0.0000000000000000
  0.0000000000000000  0.0000000000000000  0.0000000000000000
  0.0000000000000000  0.0000000000000000  0.0000000000000000
  0.0000000000000000  0.0000000000000000  0.0000000000000000
  0.0000000000000000  0.0000000000000000  0.0000000000000000
  0.0000000000000000  0.0000000000000000  0.0000000000000000
  0.0000000000000000  0.0000000000000000  0.0000000000000000
  0.0000000000000000  0.0000000000000000  0.0000000000000000
  0.0000000000000000  0.0000000000000000  0.0000000000000000
  0.0000000000000000  0.0000000000000000  0.0000000000000000
  0.0000000000000000  0.0000000000000000  0.0000000000000000
  0.0000000000000000  0.0000000000000000  0.0000000000000000
  0.0000000000000000  0.0000000000000000  0.0000000000000000
  0.0000000000000000  0.0000000000000000  0.0000000000000000
  0.0000000000000000  0.0000000000000000  0.0000000000000000
  0.0000000000000000  0.0000000000000000  0.0000000000000000
  0.0000000000000000  0.0000000000000000  0.0000000000000000
  0.0000000000000000  0.0000000000000000  0.0000000000000000
  0.0000000000000000  0.0000000000000000  0.0000000000000000
  0.0000000000000000  0.0000000000000000  0.0000000000000000
  0.0000000000000000  0.0000000000000000  0.0000000000000000
  0.0000000000000000  0.0000000000000000  0.0000000000000000
  0.0000000000000000  0.0000000000000000  0.0000000000000000
  0.0000000000000000  0.0000000000000000  0.0000000000000000
  0.0000000000000000  0.0000000000000000  0.0000000000000000
  0.0000000000000000  0.0000000000000000  0.0000000000000000
  0.0000000000000000  0.0000000000000000  0.0000000000000000
  0.0000000000000000  0.0000000000000000  0.0000000000000000
  0.0000000000000000  0.0000000000000000  0.0000000000000000
  0.0000000000000000  0.0000000000000000  0.0000000000000000
  0.0000000000000000  0.0000000000000000  0.0000000000000000
  0.0000000000000000  0.0000000000000000  0.0000000000000000
  0.0000000000000000  0.0000000000000000  0.0000000000000000
  0.0000000000000000  0.0000000000000000  0.0000000000000000
  0.0000000000000000  0.0000000000000000  0.0000000000000000
  0.0000000000000000  0.0000000000000000  0.0000000000000000
  0.0000000000000000  0.0000000000000000  0.0000000000000000
  0.0000000000000000  0.0000000000000000  0.0000000000000000
  0.0000000000000000  0.0000000000000000  0.0000000000000000
  0.0000000000000000  0.0000000000000000  0.0000000000000000
  0.0000000000000000  0.0000000000000000  0.0000000000000000
  0.0000000000000000  0.0000000000000000  0.0000000000000000
  0.0000000000000000  0.0000000000000000  0.0000000000000000
  0.0000000000000000  0.0000000000000000  0.0000000000000000
  0.0000000000000000  0.0000000000000000  0.0000000000000000
  0.0000000000000000  0.0000000000000000  0.0000000000000000
  0.0000000000000000  0.0000000000000000  0.0000000000000000
  0.0000000000000000  0.0000000000000000  0.0000000000000000
  0.0000000000000000  0.0000000000000000  0.0000000000000000
  0.0000000000000000  0.0000000000000000  0.0000000000000000
  0.0000000000000000  0.0000000000000000  0.0000000000000000
  0.0000000000000000  0.0000000000000000  0.0000000000000000
  0.0000000000000000  0.0000000000000000  0.0000000000000000
  0.0000000000000000  0.0000000000000000  0.0000000000000000
  0.0000000000000000  0.0000000000000000  0.0000000000000000
  0.0000000000000000  0.0000000000000000  0.0000000000000000
  0.0000000000000000  0.0000000000000000  0.0000000000000000
  0.0000000000000000  0.0000000000000000  0.0000000000000000
  0.0000000000000000  0.0000000000000000  0.0000000000000000
  0.0000000000000000  0.0000000000000000  0.0000000000000000
  0.0000000000000000  0.0000000000000000  0.0000000000000000
  0.0000000000000000  0.0000000000000000  0.0000000000000000
  0.0000000000000000  0.0000000000000000  0.0000000000000000
  0.0000000000000000  0.0000000000000000  0.0000000000000000
  0.0000000000000000  0.0000000000000000  0.0000000000000000
  0.0000000000000000  0.0000000000000000  0.0000000000000000
  0.0000000000000000  0.0000000000000000  0.0000000000000000
  0.0000000000000000  0.0000000000000000  0.0000000000000000
  0.0000000000000000  0.0000000000000000  0.0000000000000000
  0.0000000000000000  0.0000000000000000  0.0000000000000000
  0.0000000000000000  0.0000000000000000  0.0000000000000000
  0.0000000000000000  0.0000000000000000  0.0000000000000000
  0.0000000000000000  0.0000000000000000  0.0000000000000000
  0.0000000000000000  0.0000000000000000  0.0000000000000000
  0.0000000000000000  0.0000000000000000  0.0000000000000000
  0.0000000000000000  0.0000000000000000  0.0000000000000000
  0.0000000000000000  0.0000000000000000  0.0000000000000000
  0.0000000000000000  0.0000000000000000  0.0000000000000000
  0.0000000000000000  0.0000000000000000  0.0000000000000000
  0.0000000000000000  0.0000000000000000  0.0000000000000000
  0.0000000000000000  0.0000000000000000  0.0000000000000000
  0.0000000000000000  0.0000000000000000  0.0000000000000000
  0.0000000000000000  0.0000000000000000  0.0000000000000000
  0.0000000000000000  0.0000000000000000  0.0000000000000000
  0.0000000000000000  0.0000000000000000  0.0000000000000000
  0.0000000000000000  0.0000000000000000  0.0000000000000000
  0.0000000000000000  0.0000000000000000  0.0000000000000000
  0.0000000000000000  0.0000000000000000  0.0000000000000000
  0.0000000000000000  0.0000000000000000  0.0000000000000000
  0.0000000000000000  0.0000000000000000  0.0000000000000000
  0.0000000000000000  0.0000000000000000  0.0000000000000000
  0.0000000000000000  0.0000000000000000  0.0000000000000000
  0.0000000000000000  0.0000000000000000  0.0000000000000000
  0.0000000000000000  0.0000000000000000  0.0000000000000000
  0.0000000000000000  0.0000000000000000  0.0000000000000000
  0.0000000000000000  0.0000000000000000  0.0000000000000000
  0.0000000000000000  0.0000000000000000  0.0000000000000000
  0.0000000000000000  0.0000000000000000  0.0000000000000000
  0.0000000000000000  0.0000000000000000  0.0000000000000000
  0.0000000000000000  0.0000000000000000  0.0000000000000000
  0.0000000000000000  0.0000000000000000  0.0000000000000000
  0.0000000000000000  0.0000000000000000  0.0000000000000000
  0.0000000000000000  0.0000000000000000  0.0000000000000000
  0.0000000000000000  0.0000000000000000  0.0000000000000000
  0.0000000000000000  0.0000000000000000  0.0000000000000000
  0.0000000000000000  0.0000000000000000  0.0000000000000000
  0.0000000000000000  0.0000000000000000  0.0000000000000000
  0.0000000000000000  0.0000000000000000  0.0000000000000000
  0.0000000000000000  0.0000000000000000  0.0000000000000000
  0.0000000000000000  0.0000000000000000  0.0000000000000000
  0.0000000000000000  0.0000000000000000  0.0000000000000000
  0.0000000000000000  0.0000000000000000  0.0000000000000000
  0.0000000000000000  0.0000000000000000  0.0000000000000000
  0.0000000000000000  0.0000000000000000  0.0000000000000000
  0.0000000000000000  0.0000000000000000  0.0000000000000000
  0.0000000000000000  0.0000000000000000  0.0000000000000000
  0.0000000000000000  0.0000000000000000  0.0000000000000000
  0.0000000000000000  0.0000000000000000  0.0000000000000000
  0.0000000000000000  0.0000000000000000  0.0000000000000000
  0.0000000000000000  0.0000000000000000  0.0000000000000000
  0.0000000000000000  0.0000000000000000  0.0000000000000000
  0.0000000000000000  0.0000000000000000  0.0000000000000000
  0.0000000000000000  0.0000000000000000  0.0000000000000000
