C  O  Pd
 1.0000000000000000
    12.2143708368485502    0.0000000000000000    0.0000000000000007
     0.0000000000000017   10.8116922467861709    0.0000000000000007
     0.0000000000000000    0.0000000000000000   30.6875744822424821
 C   O   Pd 
   1  65  64
Selective dynamics
Direct
  0.3779073788841454  0.4988696896389223  0.4734642518245164   T   T   T
  0.2526275285142279  0.6209194517085025  0.3971681308508730   T   T   T
  0.7500000000000000  0.3750000000000000  0.0986326357059468   F   F   F
  0.5025735086726725  0.6211896629210562  0.3972885791425584   T   T   T
  0.5016971898973540  0.8787211736626225  0.3973004739195091   T   T   T
  0.5011644688878301  0.6253167774330330  0.2991556852283497   T   T   T
  0.5011236548823966  0.8741718879281130  0.2991298817160199   T   T   T
  0.7510160135337473  0.3747541743877243  0.2986907432232735   T   T   T
  0.2511913018974345  0.1253610470704845  0.2988062177551348   T   T   T
  0.7520830932140359  0.6209050328692025  0.3965639617922780   T   T   T
  1.0014150139559406  0.8793558509007233  0.3963492358710358   T   T   T
  0.0000000000000000  0.6250000000000000  0.0986326357059468   F   F   F
  0.2515667836394546  0.3749219918395103  0.2989074839526107   T   T   T
  0.0016641405869546  0.1205802141094070  0.3958749836519855   T   T   T
  0.0000007785774361  0.8746366631057728  0.1990387117510663   F   F   F
  1.0019873273089963  0.3796673035493719  0.3959589429351814   T   T   T
  0.0000001489023768  0.6253641828117400  0.1990385236877962   F   F   F
  0.0010529233928525  0.8745511257879026  0.2986966356726069   T   T   T
  0.0011474434568729  0.1252666783605723  0.2984606115190146   T   T   T
  0.0011627902999291  0.6253013859073614  0.2987003475326681   T   T   T
  1.0011154878064887  0.3751872609693583  0.2984939671251209   T   T   T
  1.0021955000958476  0.6207177308337437  0.3965025072174725   T   T   T
  0.0000003667133454  0.1253639748692094  0.1990386316366852   F   F   F
  0.0000002712633380  0.3746360819220366  0.1990386009744299   F   F   F
  0.2500000000000000  0.3750000000000000  0.0986326357059468   F   F   F
 -0.0000000000000000  0.8750000000000001  0.0986326357059468   F   F   F
  0.2499998638177366  0.3746354513558036  0.1990391137478614   F   F   F
  0.2500000000000000  0.1250000000000000  0.0986326357059468   F   F   F
  0.2500003118916107  0.1253643742758414  0.1990388468832426   F   F   F
  0.0000000000000000  0.3750000000000000  0.0986326357059468   F   F   F
  0.0000000000000000  0.1250000000000000  0.0986326357059468   F   F   F
  0.7500000000000000  0.1250000000000000  0.0986326357059468   F   F   F
  0.7500004982174803  0.3746360905691121  0.1990382815073973   F   F   F
  0.3657093251555332  0.5864280300553351  0.4942791939077377   T   T   T
  0.7511085670610479  0.1251823678862822  0.2986444295551177   T   T   T
  0.5014684503696372  0.1200296318981882  0.3968447543419712   T   T   T
  0.5041138947728004  0.3775131041649753  0.3967741428237327   T   T   T
  0.5008896968029631  0.1250773840639791  0.2988137067512687   T   T   T
  0.5013723037899500  0.3743757995138415  0.2990169723342876   T   T   T
  0.4999998368048840  0.1253637532206347  0.1990388322615649   F   F   F
  0.4999999938080711  0.3746360868658646  0.1990385922315757   F   F   F
  0.5000000000000000  0.1250000000000000  0.0986326357059468   F   F   F
  0.5000000000000000  0.3750000000000000  0.0986326357059468   F   F   F
  0.7500000114023815  0.1253633646095497  0.1990386859845709   F   F   F
  0.2513200224975973  0.8788840364406677  0.3966539419607007   T   T   T
  0.2518071869842138  0.6250476488797516  0.2989908568315091   T   T   T
  0.2510592512421162  0.8740823846172641  0.2989848201526740   T   T   T
  0.2500000575081164  0.6253646356490544  0.1990388586176256   F   F   F
  0.2500000725690806  0.8746359244060554  0.1990388968624472   F   F   F
  0.2500000000000000  0.6250000000000000  0.0986326357059468   F   F   F
  0.7518139702248583  0.8792021912334079  0.3968103541959983   T   T   T
  0.2515613876665345  0.1198931898471671  0.3962728331050569   T   T   T
  0.2500000000000000  0.8750000000000001  0.0986326357059468   F   F   F
  0.2510507069088008  0.3776661406894243  0.3970131867578998   T   T   T
  0.7524233581555407  0.3794210924274379  0.3962059062989545   T   T   T
  0.7515611370958460  0.1206433188370167  0.3965198804455120   T   T   T
  0.7500000000000000  0.6250000000000000  0.0986326357059468   F   F   F
  0.7500002014178647  0.8746343896298040  0.1990386967425212   F   F   F
  0.7500000000000000  0.8750000000000001  0.0986326357059468   F   F   F
  0.7510889135551744  0.8746896533358874  0.2987748072109686   T   T   T
  0.7508676976521684  0.6255405375163449  0.2988088885059202   T   T   T
  0.5000001784867202  0.6253637522044813  0.1990389446145577   F   F   F
  0.4999995794704318  0.8746354974934157  0.1990386872989469   F   F   F
  0.5000000000000000  0.6250000000000000  0.0986326357059468   F   F   F
  0.5000000000000000  0.8750000000000001  0.0986326357059468   F   F   F
  0.7500002133337712  0.6253633161861426  0.1990388060063935   F   F   F
  0.2500002436688700  0.7499998371993483  0.1487767841964014   F   F   F
  0.5004722811685682  0.7500091241451081  0.2494737968293643   T   T   T
  0.1274995966722813  0.4999852290215321  0.3919247416802186   T   T   T
  0.6250000000000000  0.0000000000000000  0.0986326357059468   F   F   F
  0.5000000000000000  0.2500000000000000  0.0488797184302712   F   F   F
  0.2512255972866033  0.2499657129995451  0.3509070698463163   T   T   T
  0.2500000000000000  0.2500000000000000  0.0488797184302712   F   F   F
  0.2509104877787042  0.2501510819657823  0.2493675169563661   T   T   T
  0.2500000000000000  0.7500000000000000  0.0488797184302712   F   F   F
  0.3750000000000000  0.5000000000000000  0.0986326357059468   F   F   F
  0.3750013085010481  0.9999996425241101  0.1993178715196733   F   F   F
  0.3750004864510694  0.5000000253507203  0.1993181014519463   F   F   F
  0.3766481187909994 -0.0007667721810336  0.3920685536585715   T   T   T
  0.0000000644614895  0.7499997055339565  0.1487767856559003   F   F   F
  0.0000000000000000  0.2500000000000000  0.0488797184302712   F   F   F
  0.1250005006673170  0.4999996619028680  0.1993179793341455   F   F   F
  0.6250000000000000  0.5000000000000000  0.0986326357059468   F   F   F
  0.5000000000000000  0.7500000000000000  0.0488797184302712   F   F   F
  0.0006102695146485  0.7499498491318307  0.2492819513598650   T   T   T
  0.6265518016943007  0.9996163486416342  0.3922428263821227   T   T   T
  0.5022747287264174  0.2490829575443402  0.3509906023690121   T   T   T
  0.1263777229555755  0.5001897843753532  0.2978257990104175   T   T   T
  0.6260054151442918 -0.0001807611814913  0.2979236206322987   T   T   T
  0.5004256987227974  0.2498879264521130  0.2493708013543355   T   T   T
  1.0012858238776781  0.7498421373680426  0.3507971544167683   T   T   T
  0.6250011512513076  0.9999984342009582  0.1993176556340738   F   F   F
  0.5000000412290440  0.2500002002978380  0.1487764123606149   F   F   F
  0.1250000000000000  0.5000000000000000  0.0986326357059468   F   F   F
  0.2500001827845806  0.2500004790494265  0.1487770501254799   F   F   F
  0.5000000890861059  0.7499991063848873  0.1487764921061197   F   F   F
  0.2509557996998925  0.7497593458367046  0.2493990361484969   T   T   T
  0.1261808449363725  0.9998140593194521  0.2977994103531416   T   T   T
  0.3750000000000000  0.0000000000000000  0.0986326357059468   F   F   F
  0.8771623171606374  0.5003202724266467  0.3914389735969077   T   T   T
  0.0000000000000000  0.7500000000000000  0.0488797184302712   F   F   F
  0.7514409125560949  0.7502585420940732  0.3509618828279718   T   T   T
  0.1250000000000000  0.0000000000000000  0.0986326357059468   F   F   F
  0.7500000000000000  0.2500000000000000  0.0488797184302712   F   F   F
  0.8750000000000000  0.0000000000000000  0.0986326357059468   F   F   F
  0.8759766357346915  0.5002556696956971  0.2976840216254483   T   T   T
  0.1265433811126745 -0.0003660827576089  0.3913429600343609   T   T   T
  0.7500000714258059  0.2500001333654533  0.1487767298788664   F   F   F
  0.8749990435797278  0.9999988729247118  0.1993176942245059   F   F   F
  0.7499999695802716  0.7499987873488344  0.1487766346932499   F   F   F
  0.1249992154568337  0.0000000621413549  0.1993179005561505   F   F   F
  0.7502733724101319  0.7500180069994435  0.2493294605861608   T   T   T
  0.7504311980845477  0.2500198078383155  0.2492759897732984   T   T   T
  0.8761435529624197 -0.0000723256787850  0.2976661326481173   T   T   T
  0.0000001104490266  0.2500003692293262  0.1487770372582357   F   F   F
  0.7515735819480984  0.2497253154928312  0.3507122715873924   T   T   T
  0.5018175639973620  0.7500961584024490  0.3513451128288769   T   T   T
  0.8764811951417383  1.0000155462822347  0.3914900527361312   T   T   T
  0.0006301398366314  0.2501817117838915  0.2491706393280315   T   T   T
  0.8749998623887097  0.5000001886345932  0.1993177285951360   F   F   F
  0.7500000000000000  0.7500000000000000  0.0488797184302712   F   F   F
  0.8750000000000000  0.5000000000000000  0.0986326357059468   F   F   F
  1.0014012790411653  0.2501974165875191  0.3503625304792308   T   T   T
  0.3760346078254210 -0.0004180939482213  0.2980917274516608   T   T   T
  0.6249997369785575  0.5000005243672183  0.1993177510521300   F   F   F
  0.6261581162879242  0.5000313875143927  0.2979747875278811   T   T   T
  0.3776648299682788  0.4984248840661482  0.3931242087191390   T   T   T
  0.2517373363464602  0.7494397445034855  0.3511057832081124   T   T   T
  0.3765642832557857  0.4998571210484479  0.2983614180517260   T   T   T
  0.6273842521718672  0.5000177134242366  0.3917922622815035   T   T   T
Cartesian
  0.0000000000000000  0.0000000000000000  0.0000000000000000
  0.0000000000000000  0.0000000000000000  0.0000000000000000
  0.0000000000000000  0.0000000000000000  0.0000000000000000
  0.0000000000000000  0.0000000000000000  0.0000000000000000
  0.0000000000000000  0.0000000000000000  0.0000000000000000
  0.0000000000000000  0.0000000000000000  0.0000000000000000
  0.0000000000000000  0.0000000000000000  0.0000000000000000
  0.0000000000000000  0.0000000000000000  0.0000000000000000
  0.0000000000000000  0.0000000000000000  0.0000000000000000
  0.0000000000000000  0.0000000000000000  0.0000000000000000
  0.0000000000000000  0.0000000000000000  0.0000000000000000
  0.0000000000000000  0.0000000000000000  0.0000000000000000
  0.0000000000000000  0.0000000000000000  0.0000000000000000
  0.0000000000000000  0.0000000000000000  0.0000000000000000
  0.0000000000000000  0.0000000000000000  0.0000000000000000
  0.0000000000000000  0.0000000000000000  0.0000000000000000
  0.0000000000000000  0.0000000000000000  0.0000000000000000
  0.0000000000000000  0.0000000000000000  0.0000000000000000
  0.0000000000000000  0.0000000000000000  0.0000000000000000
  0.0000000000000000  0.0000000000000000  0.0000000000000000
  0.0000000000000000  0.0000000000000000  0.0000000000000000
  0.0000000000000000  0.0000000000000000  0.0000000000000000
  0.0000000000000000  0.0000000000000000  0.0000000000000000
  0.0000000000000000  0.0000000000000000  0.0000000000000000
  0.0000000000000000  0.0000000000000000  0.0000000000000000
  0.0000000000000000  0.0000000000000000  0.0000000000000000
  0.0000000000000000  0.0000000000000000  0.0000000000000000
  0.0000000000000000  0.0000000000000000  0.0000000000000000
  0.0000000000000000  0.0000000000000000  0.0000000000000000
  0.0000000000000000  0.0000000000000000  0.0000000000000000
  0.0000000000000000  0.0000000000000000  0.0000000000000000
  0.0000000000000000  0.0000000000000000  0.0000000000000000
  0.0000000000000000  0.0000000000000000  0.0000000000000000
  0.0000000000000000  0.0000000000000000  0.0000000000000000
  0.0000000000000000  0.0000000000000000  0.0000000000000000
  0.0000000000000000  0.0000000000000000  0.0000000000000000
  0.0000000000000000  0.0000000000000000  0.0000000000000000
  0.0000000000000000  0.0000000000000000  0.0000000000000000
  0.0000000000000000  0.0000000000000000  0.0000000000000000
  0.0000000000000000  0.0000000000000000  0.0000000000000000
  0.0000000000000000  0.0000000000000000  0.0000000000000000
  0.0000000000000000  0.0000000000000000  0.0000000000000000
  0.0000000000000000  0.0000000000000000  0.0000000000000000
  0.0000000000000000  0.0000000000000000  0.0000000000000000
  0.0000000000000000  0.0000000000000000  0.0000000000000000
  0.0000000000000000  0.0000000000000000  0.0000000000000000
  0.0000000000000000  0.0000000000000000  0.0000000000000000
  0.0000000000000000  0.0000000000000000  0.0000000000000000
  0.0000000000000000  0.0000000000000000  0.0000000000000000
  0.0000000000000000  0.0000000000000000  0.0000000000000000
  0.0000000000000000  0.0000000000000000  0.0000000000000000
  0.0000000000000000  0.0000000000000000  0.0000000000000000
  0.0000000000000000  0.0000000000000000  0.0000000000000000
  0.0000000000000000  0.0000000000000000  0.0000000000000000
  0.0000000000000000  0.0000000000000000  0.0000000000000000
  0.0000000000000000  0.0000000000000000  0.0000000000000000
  0.0000000000000000  0.0000000000000000  0.0000000000000000
  0.0000000000000000  0.0000000000000000  0.0000000000000000
  0.0000000000000000  0.0000000000000000  0.0000000000000000
  0.0000000000000000  0.0000000000000000  0.0000000000000000
  0.0000000000000000  0.0000000000000000  0.0000000000000000
  0.0000000000000000  0.0000000000000000  0.0000000000000000
  0.0000000000000000  0.0000000000000000  0.0000000000000000
  0.0000000000000000  0.0000000000000000  0.0000000000000000
  0.0000000000000000  0.0000000000000000  0.0000000000000000
  0.0000000000000000  0.0000000000000000  0.0000000000000000
  0.0000000000000000  0.0000000000000000  0.0000000000000000
  0.0000000000000000  0.0000000000000000  0.0000000000000000
  0.0000000000000000  0.0000000000000000  0.0000000000000000
  0.0000000000000000  0.0000000000000000  0.0000000000000000
  0.0000000000000000  0.0000000000000000  0.0000000000000000
  0.0000000000000000  0.0000000000000000  0.0000000000000000
  0.0000000000000000  0.0000000000000000  0.0000000000000000
  0.0000000000000000  0.0000000000000000  0.0000000000000000
  0.0000000000000000  0.0000000000000000  0.0000000000000000
  0.0000000000000000  0.0000000000000000  0.0000000000000000
  0.0000000000000000  0.0000000000000000  0.0000000000000000
  0.0000000000000000  0.0000000000000000  0.0000000000000000
  0.0000000000000000  0.0000000000000000  0.0000000000000000
  0.0000000000000000  0.0000000000000000  0.0000000000000000
  0.0000000000000000  0.0000000000000000  0.0000000000000000
  0.0000000000000000  0.0000000000000000  0.0000000000000000
  0.0000000000000000  0.0000000000000000  0.0000000000000000
  0.0000000000000000  0.0000000000000000  0.0000000000000000
  0.0000000000000000  0.0000000000000000  0.0000000000000000
  0.0000000000000000  0.0000000000000000  0.0000000000000000
  0.0000000000000000  0.0000000000000000  0.0000000000000000
  0.0000000000000000  0.0000000000000000  0.0000000000000000
  0.0000000000000000  0.0000000000000000  0.0000000000000000
  0.0000000000000000  0.0000000000000000  0.0000000000000000
  0.0000000000000000  0.0000000000000000  0.0000000000000000
  0.0000000000000000  0.0000000000000000  0.0000000000000000
  0.0000000000000000  0.0000000000000000  0.0000000000000000
  0.0000000000000000  0.0000000000000000  0.0000000000000000
  0.0000000000000000  0.0000000000000000  0.0000000000000000
  0.0000000000000000  0.0000000000000000  0.0000000000000000
  0.0000000000000000  0.0000000000000000  0.0000000000000000
  0.0000000000000000  0.0000000000000000  0.0000000000000000
  0.0000000000000000  0.0000000000000000  0.0000000000000000
  0.0000000000000000  0.0000000000000000  0.0000000000000000
  0.0000000000000000  0.0000000000000000  0.0000000000000000
  0.0000000000000000  0.0000000000000000  0.0000000000000000
  0.0000000000000000  0.0000000000000000  0.0000000000000000
  0.0000000000000000  0.0000000000000000  0.0000000000000000
  0.0000000000000000  0.0000000000000000  0.0000000000000000
  0.0000000000000000  0.0000000000000000  0.0000000000000000
  0.0000000000000000  0.0000000000000000  0.0000000000000000
  0.0000000000000000  0.0000000000000000  0.0000000000000000
  0.0000000000000000  0.0000000000000000  0.0000000000000000
  0.0000000000000000  0.0000000000000000  0.0000000000000000
  0.0000000000000000  0.0000000000000000  0.0000000000000000
  0.0000000000000000  0.0000000000000000  0.0000000000000000
  0.0000000000000000  0.0000000000000000  0.0000000000000000
  0.0000000000000000  0.0000000000000000  0.0000000000000000
  0.0000000000000000  0.0000000000000000  0.0000000000000000
  0.0000000000000000  0.0000000000000000  0.0000000000000000
  0.0000000000000000  0.0000000000000000  0.0000000000000000
  0.0000000000000000  0.0000000000000000  0.0000000000000000
  0.0000000000000000  0.0000000000000000  0.0000000000000000
  0.0000000000000000  0.0000000000000000  0.0000000000000000
  0.0000000000000000  0.0000000000000000  0.0000000000000000
  0.0000000000000000  0.0000000000000000  0.0000000000000000
  0.0000000000000000  0.0000000000000000  0.0000000000000000
  0.0000000000000000  0.0000000000000000  0.0000000000000000
  0.0000000000000000  0.0000000000000000  0.0000000000000000
  0.0000000000000000  0.0000000000000000  0.0000000000000000
  0.0000000000000000  0.0000000000000000  0.0000000000000000
  0.0000000000000000  0.0000000000000000  0.0000000000000000
  0.0000000000000000  0.0000000000000000  0.0000000000000000
  0.0000000000000000  0.0000000000000000  0.0000000000000000
