C  H  O  Pd
 1.0000000000000000
    11.0046904376558210    0.0000000000000000    0.0000000000000000
     0.0000000000000000   11.0046904376558210    0.0000000000000000
     0.0000000000000000    0.0000000000000000   27.7814912333251840
 C   H   O   Pd 
   2   3   2  80
Selective dynamics
Direct
  0.8729541173467890  0.7758362412613145  0.3912935991721770   T   T   T
  0.8716711202036772  0.4001227537529957  0.4309113118939090   T   T   T
  0.8700334781187717  0.3081984008125794  0.4136472321960036   T   T   T
  0.7900163751739493  0.4103183502604570  0.4537235791659555   T   T   T
  0.9541396362305350  0.4071388346420906  0.4534615117199628   T   T   T
  0.8724863611167510  0.7910764320989206  0.4335880770558541   T   T   T
  0.8728112190598546  0.4958095405423970  0.3962173961811371   T   T   T
  0.7500000000000000  0.5000000000000000  0.0539927820073487   F   F   F
  0.1250000000000000  0.3750000000000000  0.1240168419828507   F   F   F
  0.8750000000000000  0.1250000000000000  0.1240168419828507   F   F   F
  0.6250000000000001  0.1250000000000000  0.1240168419828507   F   F   F
  0.0000000000000000  0.5000000000000000  0.0539927820073487   F   F   F
  0.2500000000000000  0.0000000000000000  0.0539927820073487   F   F   F
  0.5000000000000000  0.0000000000000000  0.0539927820073487   F   F   F
  0.0000000000000000  0.7500000000000000  0.0539927820073487   F   F   F
  0.7500000000000000  0.0000000000000000  0.0539927820073487   F   F   F
  0.2498533716621567  0.2505022274536619  0.1955258684092987   T   T   T
  0.5000000000000000  0.2500000000000000  0.0539927820073487   F   F   F
  0.7500000000000000  0.2500000000000000  0.0539927820073487   F   F   F
  0.2500000000000000  0.5000000000000000  0.0539927820073487   F   F   F
  0.3750000000000000  0.1250000000000000  0.1240168419828507   F   F   F
  0.5000000000000000  0.5000000000000000  0.0539927820073487   F   F   F
  0.0000000000000000  0.2500000000000000  0.0539927820073487   F   F   F
  0.2500000000000000  0.2500000000000000  0.0539927820073487   F   F   F
 -0.0001302442422341  0.2504926852539887  0.1954434146808743   F   F   F
  0.2500000000000000  0.7500000000000000  0.0539927820073487   F   F   F
  0.7461998697197915  0.7514977029748967  0.3417577466746968   T   T   T
  0.4980426382100860  0.7496612113089746  0.3388157643954308   T   T   T
  0.3750000000000000  0.3750000000000000  0.1240168419828507   F   F   F
  0.6250000000000001  0.3750000000000000  0.1240168419828507   F   F   F
  0.8750000000000000  0.3750000000000000  0.1240168419828507   F   F   F
  0.1250000000000000  0.6250000000000001  0.1240168419828507   F   F   F
  0.3750000000000000  0.6250000000000001  0.1240168419828507   F   F   F
  0.6250000000000001  0.6250000000000001  0.1240168419828507   F   F   F
  0.8750000000000000  0.6250000000000001  0.1240168419828507   F   F   F
  0.1250000000000000  0.8750000000000000  0.1240168419828507   F   F   F
  0.3750000000000000  0.8750000000000000  0.1240168419828507   F   F   F
  0.6250000000000001  0.8750000000000000  0.1240168419828507   F   F   F
  0.8750000000000000  0.8750000000000000  0.1240168419828507   F   F   F
 -0.0003471494557819 -0.0006863888375913  0.1953509614924595   F   F   F
  0.2496554049899371 -0.0000111795298469  0.1953284993433002   F   F   F
  0.7490063548764311 -0.0005881797493950  0.1953188605343484   F   F   F
  0.4992477301656630 -0.0000892381588408  0.1953228684544160   F   F   F
  0.0000000000000000  0.0000000000000000  0.0539927820073487   F   F   F
  0.1250000000000000  0.1250000000000000  0.1240168419828507   F   F   F
  0.2493016132179446  0.5002706183155657  0.1955784267795224   T   T   T
  0.3744120500140437  0.1249648166824331  0.2668597058394339   T   T   T
  0.4997878413104500  0.4997562420058265  0.1955952045653739   T   T   T
  0.7494298808203804  0.4999048206749327  0.1955450029051957   T   T   T
 -0.0007592576263637  0.7492965213948543  0.1956941718330786   T   T   T
  0.2490527571285135  0.7497342338199484  0.1956640570153412   T   T   T
  0.4997303657706607  0.7494245012786850  0.1957073371051649   T   T   T
  0.7495309766779845  0.7490644488645469  0.1956544625520025   T   T   T
  0.8736100019563545  0.6238259745625149  0.2678199286350689   T   T   T
  0.1247420919309541  0.1250782587610611  0.2665275002859577   T   T   T
  0.6254988473288123  0.6238779020909828  0.2684476853101175   T   T   T
  0.8739085319572759  0.1240542489894891  0.2662561926000576   T   T   T
  0.1237531221040051  0.3768166034393470  0.2674320343450873   T   T   T
  0.3746653863636881  0.3749468366970404  0.2669096664967568   T   T   T
  0.6247280427634916  0.3760475815059793  0.2677791118522189   T   T   T
  0.8741404650917499  0.3750131431214240  0.2671344269911038   T   T   T
  0.1216972014770457  0.6247198285428011  0.2684249799388661   T   T   T
  0.3739943179035811  0.6248092430978329  0.2670454593226890   T   T   T
  0.6235117322176010  0.1246290219479266  0.2669342501558347   T   T   T
  0.7500000000000000  0.7500000000000000  0.0539927820073487   F   F   F
  0.3738826980113213  0.8750785429759845  0.2668703256483065   T   T   T
  0.0006781396146323  0.7520159977638528  0.3420230217508101   T   T   T
  0.4998333212114768  0.2501249102034213  0.1954846969534003   F   F   F
  0.7493575293654386  0.2502456964055844  0.1954495663083370   F   F   F
 -0.0007992449924078  0.5004370246420728  0.1955125467364593   F   F   F
  0.2502827661660479  0.2502547503535562  0.3385322248496892   T   T   T
  0.6237961469868206  0.8736699481941762  0.2671622231466225   T   T   T
  0.8735902787289523  0.8740106008390152  0.2669501428403485   T   T   T
 -0.0019424855038781  0.0017888225349018  0.3382005966910501   T   T   T
  0.2478472071737659  0.0003758941140460  0.3385775234995748   T   T   T
  0.2488794292308762  0.7505874757193336  0.3388357824409486   T   T   T
  0.4976483873256221 -0.0004517580048871  0.3388657507414856   T   T   T
  0.0009507958890813  0.2472899665638831  0.3379772317162943   T   T   T
  0.4992604126817395  0.2493771118774180  0.3390672621911528   T   T   T
  0.1233200195543406  0.8741651523285682  0.2671967405413179   T   T   T
  0.7495176001710253  0.2469278153424942  0.3384561454252303   T   T   T
  0.0039255681549426  0.4963790987492738  0.3408601701624617   T   T   T
  0.2501537566250954  0.5002788867013523  0.3388788923310628   T   T   T
  0.4959864805206503  0.4996283441482472  0.3392152037165551   T   T   T
  0.7423343140436287  0.4967295760545213  0.3410697723801009   T   T   T
  0.7474730739350910  0.0011108707804816  0.3384163015286056   T   T   T
  0.5000000000000000  0.7500000000000000  0.0539927820073487   F   F   F
Cartesian
  0.0000000000000000  0.0000000000000000  0.0000000000000000
  0.0000000000000000  0.0000000000000000  0.0000000000000000
  0.0000000000000000  0.0000000000000000  0.0000000000000000
  0.0000000000000000  0.0000000000000000  0.0000000000000000
  0.0000000000000000  0.0000000000000000  0.0000000000000000
  0.0000000000000000  0.0000000000000000  0.0000000000000000
  0.0000000000000000  0.0000000000000000  0.0000000000000000
  0.0000000000000000  0.0000000000000000  0.0000000000000000
  0.0000000000000000  0.0000000000000000  0.0000000000000000
  0.0000000000000000  0.0000000000000000  0.0000000000000000
  0.0000000000000000  0.0000000000000000  0.0000000000000000
  0.0000000000000000  0.0000000000000000  0.0000000000000000
  0.0000000000000000  0.0000000000000000  0.0000000000000000
  0.0000000000000000  0.0000000000000000  0.0000000000000000
  0.0000000000000000  0.0000000000000000  0.0000000000000000
  0.0000000000000000  0.0000000000000000  0.0000000000000000
  0.0000000000000000  0.0000000000000000  0.0000000000000000
  0.0000000000000000  0.0000000000000000  0.0000000000000000
  0.0000000000000000  0.0000000000000000  0.0000000000000000
  0.0000000000000000  0.0000000000000000  0.0000000000000000
  0.0000000000000000  0.0000000000000000  0.0000000000000000
  0.0000000000000000  0.0000000000000000  0.0000000000000000
  0.0000000000000000  0.0000000000000000  0.0000000000000000
  0.0000000000000000  0.0000000000000000  0.0000000000000000
  0.0000000000000000  0.0000000000000000  0.0000000000000000
  0.0000000000000000  0.0000000000000000  0.0000000000000000
  0.0000000000000000  0.0000000000000000  0.0000000000000000
  0.0000000000000000  0.0000000000000000  0.0000000000000000
  0.0000000000000000  0.0000000000000000  0.0000000000000000
  0.0000000000000000  0.0000000000000000  0.0000000000000000
  0.0000000000000000  0.0000000000000000  0.0000000000000000
  0.0000000000000000  0.0000000000000000  0.0000000000000000
  0.0000000000000000  0.0000000000000000  0.0000000000000000
  0.0000000000000000  0.0000000000000000  0.0000000000000000
  0.0000000000000000  0.0000000000000000  0.0000000000000000
  0.0000000000000000  0.0000000000000000  0.0000000000000000
  0.0000000000000000  0.0000000000000000  0.0000000000000000
  0.0000000000000000  0.0000000000000000  0.0000000000000000
  0.0000000000000000  0.0000000000000000  0.0000000000000000
  0.0000000000000000  0.0000000000000000  0.0000000000000000
  0.0000000000000000  0.0000000000000000  0.0000000000000000
  0.0000000000000000  0.0000000000000000  0.0000000000000000
  0.0000000000000000  0.0000000000000000  0.0000000000000000
  0.0000000000000000  0.0000000000000000  0.0000000000000000
  0.0000000000000000  0.0000000000000000  0.0000000000000000
  0.0000000000000000  0.0000000000000000  0.0000000000000000
  0.0000000000000000  0.0000000000000000  0.0000000000000000
  0.0000000000000000  0.0000000000000000  0.0000000000000000
  0.0000000000000000  0.0000000000000000  0.0000000000000000
  0.0000000000000000  0.0000000000000000  0.0000000000000000
  0.0000000000000000  0.0000000000000000  0.0000000000000000
  0.0000000000000000  0.0000000000000000  0.0000000000000000
  0.0000000000000000  0.0000000000000000  0.0000000000000000
  0.0000000000000000  0.0000000000000000  0.0000000000000000
  0.0000000000000000  0.0000000000000000  0.0000000000000000
  0.0000000000000000  0.0000000000000000  0.0000000000000000
  0.0000000000000000  0.0000000000000000  0.0000000000000000
  0.0000000000000000  0.0000000000000000  0.0000000000000000
  0.0000000000000000  0.0000000000000000  0.0000000000000000
  0.0000000000000000  0.0000000000000000  0.0000000000000000
  0.0000000000000000  0.0000000000000000  0.0000000000000000
  0.0000000000000000  0.0000000000000000  0.0000000000000000
  0.0000000000000000  0.0000000000000000  0.0000000000000000
  0.0000000000000000  0.0000000000000000  0.0000000000000000
  0.0000000000000000  0.0000000000000000  0.0000000000000000
  0.0000000000000000  0.0000000000000000  0.0000000000000000
  0.0000000000000000  0.0000000000000000  0.0000000000000000
  0.0000000000000000  0.0000000000000000  0.0000000000000000
  0.0000000000000000  0.0000000000000000  0.0000000000000000
  0.0000000000000000  0.0000000000000000  0.0000000000000000
  0.0000000000000000  0.0000000000000000  0.0000000000000000
  0.0000000000000000  0.0000000000000000  0.0000000000000000
  0.0000000000000000  0.0000000000000000  0.0000000000000000
  0.0000000000000000  0.0000000000000000  0.0000000000000000
  0.0000000000000000  0.0000000000000000  0.0000000000000000
  0.0000000000000000  0.0000000000000000  0.0000000000000000
  0.0000000000000000  0.0000000000000000  0.0000000000000000
  0.0000000000000000  0.0000000000000000  0.0000000000000000
  0.0000000000000000  0.0000000000000000  0.0000000000000000
  0.0000000000000000  0.0000000000000000  0.0000000000000000
  0.0000000000000000  0.0000000000000000  0.0000000000000000
  0.0000000000000000  0.0000000000000000  0.0000000000000000
  0.0000000000000000  0.0000000000000000  0.0000000000000000
  0.0000000000000000  0.0000000000000000  0.0000000000000000
  0.0000000000000000  0.0000000000000000  0.0000000000000000
  0.0000000000000000  0.0000000000000000  0.0000000000000000
  0.0000000000000000  0.0000000000000000  0.0000000000000000
