C  H  O  Pd
 1.0000000000000000
    11.0046904376558210    0.0000000000000000    0.0000000000000000
     0.0000000000000000   11.0046904376558210    0.0000000000000000
     0.0000000000000000    0.0000000000000000   27.7814912333251840
 C   H   O   Pd 
   2   3   2  80
Selective dynamics
Direct
 -0.0289080911970708  0.3717116836481776  0.3912836001763984   T   T   T
  0.3510063451865207  0.3714652920979318  0.4306427724226891   T   T   T
  0.4429549928089936  0.3716655194502029  0.4133622899030872   T   T   T
  0.3422641949416007  0.2884790926402647  0.4528001907970818   T   T   T
  0.3430341717427648  0.4530440516764142  0.4536290399947910   T   T   T
 -0.0452148664848502  0.3691522133634863  0.4335374018651315   T   T   T
  0.2550255884145525  0.3731386550319998  0.3960631698766308   T   T   T
  0.7500000000000000  0.5000000000000000  0.0539927820073487   F   F   F
  0.1250000000000000  0.3750000000000000  0.1240168419828507   F   F   F
  0.8750000000000000  0.1250000000000000  0.1240168419828507   F   F   F
  0.6250000000000001  0.1250000000000000  0.1240168419828507   F   F   F
  0.0000000000000000  0.5000000000000000  0.0539927820073487   F   F   F
  0.2500000000000000  0.0000000000000000  0.0539927820073487   F   F   F
  0.5000000000000000  0.0000000000000000  0.0539927820073487   F   F   F
  0.0000000000000000  0.7500000000000000  0.0539927820073487   F   F   F
  0.7500000000000000  0.0000000000000000  0.0539927820073487   F   F   F
  0.2496199934558372  0.2502157172585148  0.1954636948166493   F   F   F
  0.5000000000000000  0.2500000000000000  0.0539927820073487   F   F   F
  0.7500000000000000  0.2500000000000000  0.0539927820073487   F   F   F
  0.2500000000000000  0.5000000000000000  0.0539927820073487   F   F   F
  0.3750000000000000  0.1250000000000000  0.1240168419828507   F   F   F
  0.5000000000000000  0.5000000000000000  0.0539927820073487   F   F   F
  0.0000000000000000  0.2500000000000000  0.0539927820073487   F   F   F
  0.2500000000000000  0.2500000000000000  0.0539927820073487   F   F   F
  0.0003191735916205  0.2495727689016901  0.1957383392782522   T   T   T
  0.2500000000000000  0.7500000000000000  0.0539927820073487   F   F   F
  0.7492647851095598  0.7502216617141799  0.3389496261327786   T   T   T
  0.4999770726747542  0.7518261241596782  0.3386826443640997   T   T   T
  0.3750000000000000  0.3750000000000000  0.1240168419828507   F   F   F
  0.6250000000000001  0.3750000000000000  0.1240168419828507   F   F   F
  0.8750000000000000  0.3750000000000000  0.1240168419828507   F   F   F
  0.1250000000000000  0.6250000000000001  0.1240168419828507   F   F   F
  0.3750000000000000  0.6250000000000001  0.1240168419828507   F   F   F
  0.6250000000000001  0.6250000000000001  0.1240168419828507   F   F   F
  0.8750000000000000  0.6250000000000001  0.1240168419828507   F   F   F
  0.1250000000000000  0.8750000000000000  0.1240168419828507   F   F   F
  0.3750000000000000  0.8750000000000000  0.1240168419828507   F   F   F
  0.6250000000000001  0.8750000000000000  0.1240168419828507   F   F   F
  0.8750000000000000  0.8750000000000000  0.1240168419828507   F   F   F
  0.0000413578321583 -0.0005725441225064  0.1958369739300527   T   T   T
  0.2495869361576088 -0.0001679309900050  0.1955708358563724   T   T   T
  0.7498670685613178 -0.0004504699562054  0.1954387110196343   F   F   F
  0.4994958048795318  0.0003921051693448  0.1954552733951219   F   F   F
  0.0000000000000000  0.0000000000000000  0.0539927820073487   F   F   F
  0.1250000000000000  0.1250000000000000  0.1240168419828507   F   F   F
  0.2494293029095947  0.5002135354545904  0.1955711156278559   T   T   T
  0.3735624383349265  0.1255063157540994  0.2674620145094862   T   T   T
  0.4992335191720428  0.5007656497599924  0.1955278973042173   T   T   T
  0.7503101498968341  0.5003759397978849  0.1953487057981076   F   F   F
  0.0002843407683302  0.7488063807054832  0.1958857725923925   T   T   T
  0.2494784741571916  0.7494553406167067  0.1956299659033983   T   T   T
  0.4994567156435402  0.7503044243741246  0.1954176738050698   F   F   F
  0.7499654168194920  0.7500454309928030  0.1953954931554477   F   F   F
  0.8758272554314422  0.6240024992106674  0.2675254989669735   T   T   T
  0.1254497633927785  0.1254865038839424  0.2682058842726541   T   T   T
  0.6248619250306953  0.6262171587140121  0.2667134045444273   T   T   T
  0.8754980743999394  0.1243479487753431  0.2671186119039712   T   T   T
  0.1250361383995254  0.3745156901980679  0.2675990708216313   T   T   T
  0.3741852712193486  0.3755858953853625  0.2670681109573321   T   T   T
  0.6251704957130396  0.3759528162211512  0.2663596998340954   T   T   T
  0.8748810101040980  0.3746440138465533  0.2669346958273699   T   T   T
  0.1248620699011014  0.6223559119477158  0.2688906516558676   T   T   T
  0.3727687231157353  0.6250566908565212  0.2674931866019878   T   T   T
  0.6246953880203470  0.1249233682162581  0.2666709428034746   T   T   T
  0.7500000000000000  0.7500000000000000  0.0539927820073487   F   F   F
  0.3747124852424213  0.8754108236992932  0.2667754981399672   T   T   T
 -0.0004363181919014  0.7489067738163279  0.3394978369932300   T   T   T
  0.4993953458244423  0.2503017789555926  0.1954733684971038   F   F   F
  0.7501692598452726  0.2497218055819742  0.1952998406640273   F   F   F
  0.0004354886475464  0.4997060215133772  0.1958166850047981   T   T   T
  0.2528667731581996  0.2437231776883450  0.3403623518421424   T   T   T
  0.6246859754235934  0.8756641806305364  0.2668844159756170   T   T   T
  0.8747490241948734  0.8737694781221577  0.2671303250742313   T   T   T
 -0.0007910907662977 -0.0020947124642634  0.3388274496273725   T   T   T
  0.2499914938160903 -0.0027699847438851  0.3389920321802971   T   T   T
  0.2502660933010887  0.7520761173316514  0.3392737060368649   T   T   T
  0.4997929407638508  0.0008769916580693  0.3387313117391104   T   T   T
 -0.0023677571925149  0.2457090748199695  0.3414916241864179   T   T   T
  0.5022048078637945  0.2502452984233899  0.3380737706900663   T   T   T
  0.1248007255493588  0.8735027461012664  0.2673215262687971   T   T   T
  0.7480190768319287  0.2497483581315182  0.3383648970212546   T   T   T
 -0.0032725950230016  0.5000743216390892  0.3424351737202869   T   T   T
  0.2517563208790451  0.5051663888770714  0.3413130795211933   T   T   T
  0.5012222436144925  0.5023674312110755  0.3379525961573439   T   T   T
  0.7471409051381391  0.5004454998306340  0.3385486379614575   T   T   T
  0.7494719391631033 -0.0004772206760421  0.3386228531832467   T   T   T
  0.5000000000000000  0.7500000000000000  0.0539927820073487   F   F   F
Cartesian
  0.0000000000000000  0.0000000000000000  0.0000000000000000
  0.0000000000000000  0.0000000000000000  0.0000000000000000
  0.0000000000000000  0.0000000000000000  0.0000000000000000
  0.0000000000000000  0.0000000000000000  0.0000000000000000
  0.0000000000000000  0.0000000000000000  0.0000000000000000
  0.0000000000000000  0.0000000000000000  0.0000000000000000
  0.0000000000000000  0.0000000000000000  0.0000000000000000
  0.0000000000000000  0.0000000000000000  0.0000000000000000
  0.0000000000000000  0.0000000000000000  0.0000000000000000
  0.0000000000000000  0.0000000000000000  0.0000000000000000
  0.0000000000000000  0.0000000000000000  0.0000000000000000
  0.0000000000000000  0.0000000000000000  0.0000000000000000
  0.0000000000000000  0.0000000000000000  0.0000000000000000
  0.0000000000000000  0.0000000000000000  0.0000000000000000
  0.0000000000000000  0.0000000000000000  0.0000000000000000
  0.0000000000000000  0.0000000000000000  0.0000000000000000
  0.0000000000000000  0.0000000000000000  0.0000000000000000
  0.0000000000000000  0.0000000000000000  0.0000000000000000
  0.0000000000000000  0.0000000000000000  0.0000000000000000
  0.0000000000000000  0.0000000000000000  0.0000000000000000
  0.0000000000000000  0.0000000000000000  0.0000000000000000
  0.0000000000000000  0.0000000000000000  0.0000000000000000
  0.0000000000000000  0.0000000000000000  0.0000000000000000
  0.0000000000000000  0.0000000000000000  0.0000000000000000
  0.0000000000000000  0.0000000000000000  0.0000000000000000
  0.0000000000000000  0.0000000000000000  0.0000000000000000
  0.0000000000000000  0.0000000000000000  0.0000000000000000
  0.0000000000000000  0.0000000000000000  0.0000000000000000
  0.0000000000000000  0.0000000000000000  0.0000000000000000
  0.0000000000000000  0.0000000000000000  0.0000000000000000
  0.0000000000000000  0.0000000000000000  0.0000000000000000
  0.0000000000000000  0.0000000000000000  0.0000000000000000
  0.0000000000000000  0.0000000000000000  0.0000000000000000
  0.0000000000000000  0.0000000000000000  0.0000000000000000
  0.0000000000000000  0.0000000000000000  0.0000000000000000
  0.0000000000000000  0.0000000000000000  0.0000000000000000
  0.0000000000000000  0.0000000000000000  0.0000000000000000
  0.0000000000000000  0.0000000000000000  0.0000000000000000
  0.0000000000000000  0.0000000000000000  0.0000000000000000
  0.0000000000000000  0.0000000000000000  0.0000000000000000
  0.0000000000000000  0.0000000000000000  0.0000000000000000
  0.0000000000000000  0.0000000000000000  0.0000000000000000
  0.0000000000000000  0.0000000000000000  0.0000000000000000
  0.0000000000000000  0.0000000000000000  0.0000000000000000
  0.0000000000000000  0.0000000000000000  0.0000000000000000
  0.0000000000000000  0.0000000000000000  0.0000000000000000
  0.0000000000000000  0.0000000000000000  0.0000000000000000
  0.0000000000000000  0.0000000000000000  0.0000000000000000
  0.0000000000000000  0.0000000000000000  0.0000000000000000
  0.0000000000000000  0.0000000000000000  0.0000000000000000
  0.0000000000000000  0.0000000000000000  0.0000000000000000
  0.0000000000000000  0.0000000000000000  0.0000000000000000
  0.0000000000000000  0.0000000000000000  0.0000000000000000
  0.0000000000000000  0.0000000000000000  0.0000000000000000
  0.0000000000000000  0.0000000000000000  0.0000000000000000
  0.0000000000000000  0.0000000000000000  0.0000000000000000
  0.0000000000000000  0.0000000000000000  0.0000000000000000
  0.0000000000000000  0.0000000000000000  0.0000000000000000
  0.0000000000000000  0.0000000000000000  0.0000000000000000
  0.0000000000000000  0.0000000000000000  0.0000000000000000
  0.0000000000000000  0.0000000000000000  0.0000000000000000
  0.0000000000000000  0.0000000000000000  0.0000000000000000
  0.0000000000000000  0.0000000000000000  0.0000000000000000
  0.0000000000000000  0.0000000000000000  0.0000000000000000
  0.0000000000000000  0.0000000000000000  0.0000000000000000
  0.0000000000000000  0.0000000000000000  0.0000000000000000
  0.0000000000000000  0.0000000000000000  0.0000000000000000
  0.0000000000000000  0.0000000000000000  0.0000000000000000
  0.0000000000000000  0.0000000000000000  0.0000000000000000
  0.0000000000000000  0.0000000000000000  0.0000000000000000
  0.0000000000000000  0.0000000000000000  0.0000000000000000
  0.0000000000000000  0.0000000000000000  0.0000000000000000
  0.0000000000000000  0.0000000000000000  0.0000000000000000
  0.0000000000000000  0.0000000000000000  0.0000000000000000
  0.0000000000000000  0.0000000000000000  0.0000000000000000
  0.0000000000000000  0.0000000000000000  0.0000000000000000
  0.0000000000000000  0.0000000000000000  0.0000000000000000
  0.0000000000000000  0.0000000000000000  0.0000000000000000
  0.0000000000000000  0.0000000000000000  0.0000000000000000
  0.0000000000000000  0.0000000000000000  0.0000000000000000
  0.0000000000000000  0.0000000000000000  0.0000000000000000
  0.0000000000000000  0.0000000000000000  0.0000000000000000
  0.0000000000000000  0.0000000000000000  0.0000000000000000
  0.0000000000000000  0.0000000000000000  0.0000000000000000
  0.0000000000000000  0.0000000000000000  0.0000000000000000
  0.0000000000000000  0.0000000000000000  0.0000000000000000
  0.0000000000000000  0.0000000000000000  0.0000000000000000
