C  H  O  Pd
 1.0000000000000000
    12.3034736924171124    0.0000000000000000    0.0000000000000000
     0.0000000000000000   12.3034736924171142    0.0000000000000000
     0.0000000000000000    0.0000000000000000   29.1654207465942434
 C   H   O   Pd 
   1   3  17  96
Selective dynamics
Direct
  0.5532162621277809  0.8716259698232637  0.4208884945960411   T   T   T
  0.4678568178287595  0.8909133511543761  0.4297287475331662   T   T   T
  0.5905192748570111  0.8275465984984769  0.4500014502742211   T   T   T
  0.5976809408313013  0.9492772726893518  0.4157664707769780   T   T   T
  0.5571173264017169  0.8046582422032312  0.3811666291355162   T   T   T
  0.6829850063143067  0.1380939625070138  0.3608798847840524   T   T   T
  0.1830001198107565  0.6364012199112044  0.3617057767912013   T   T   T
  0.4362632629477216  0.1355880103928754  0.3613915763453351   T   T   T
  0.4325362845703935  0.4408406819375071  0.3210436724185436   T   T   T
  0.1860579802276147  0.9429617025917598  0.3207717049655498   T   T   T
  0.6880336199529591  0.9440872530061322  0.3205884145395302   T   T   T
  0.1841147994147648  0.4430895137181454  0.3199535640424901   T   T   T
  0.9351925462194146  0.6334365795069167  0.3632217594507625   T   T   T
  0.6844664844017315  0.4440714420202199  0.3206857845700499   T   T   T
  0.4304931867817831  0.6320102784034616  0.3635760703774323   T   T   T
  0.4296634409658446  0.9404909344126875  0.3205572047934408   T   T   T
  0.9327500369161029  0.4389136668200381  0.3212285779173963   T   T   T
  0.9369086280560806  0.1348494223943205  0.3628479747079348   T   T   T
  0.9316120958113175  0.9390328011395226  0.3218500824716326   T   T   T
  0.1825954818363053  0.1378063954090250  0.3613310449646331   T   T   T
  0.6873877862748128  0.6339212826704730  0.3626632326432018   T   T   T
  0.8500000000000014  0.0499999999999972  0.0514307684100572   F   F   F
  0.9011430590838631  0.9032095518314091  0.2537764527482795   T   T   T
  0.2499707131254955  0.8492987964248615  0.1855932700389138   T   T   T
  0.0590181555694041  0.0412658033205397  0.3401507983315958   T   T   T
  0.1507236091547503  0.1489864169829936  0.1853656493630883   F   F   F
  0.9500000000000028  0.2500000000000000  0.0514307684100572   F   F   F
  0.1499999999999986  0.1499999999999986  0.0514307684100572   F   F   F
  0.2999999999999972  0.2000000000000028  0.1181313319610595   F   F   F
  0.0000000000000000  0.1000000000000014  0.1181313319610595   F   F   F
  0.9486127127564162  0.2506768571014975  0.1843632683220324   F   F   F
  0.9963058983799935  0.1063105945221569  0.2534457465427670   T   T   T
  0.1000000000000014  0.2999999999999972  0.1181313319610595   F   F   F
  0.5581501793383439  0.5443228322485273  0.3402320114348328   T   T   T
  0.1853627221700657  0.2827383924727151  0.3344251254682115   T   T   T
  0.0954262569735043  0.2972925913558448  0.2517705198732145   T   T   T
  0.0499999999999972  0.4500000000000027  0.0514307684100572   F   F   F
  0.2000000000000028  0.5000000000000000  0.1181313319610595   F   F   F
  0.0491193131827514  0.4512444611448465  0.1844626448581111   F   F   F
  0.8485330413376032  0.0512636254534289  0.1852339871257567   F   F   F
  0.3087546862987245  0.5434717002669606  0.3396890220539441   T   T   T
  0.4500000000000028  0.2500000000000000  0.0514307684100572   F   F   F
  0.3485341556527256  0.0512641898857512  0.1852337169709379   F   F   F
  0.9325951072483213  0.7755654058450205  0.3331767150132485   T   T   T
  0.4002495192304918  0.9026337467002526  0.2534299746147524   T   T   T
  0.1884303790833783  0.7821203940930678  0.3351558291043699   T   T   T
  0.3095667585869539  0.0459427593058275  0.3395631602015036   T   T   T
  0.8103982860551693  0.5429868986268656  0.3401212904216314   T   T   T
  0.6863906770497447  0.2834082268284145  0.3344124439608062   T   T   T
  0.9369678855354709  0.2754669071926698  0.3319138535139099   T   T   T
  0.4268167350750260  0.7780204153443246  0.3363950449904413   T   T   T
  0.0582204234563725  0.5419295638964643  0.3397345426574123   T   T   T
  0.6936938747455350  0.7824780044388094  0.3379965769041530   T   T   T
  0.5590518012039968  0.0431917613958941  0.3385461351920769   T   T   T
  0.8108279695444983  0.0457331194934305  0.3401795126608284   T   T   T
  0.8999999999999986  0.8999999999999986  0.1181313319610595   F   F   F
  0.9001989440900643  0.4036719279191799  0.2534635040458449   T   T   T
  0.2499682108142002  0.3493012120833129  0.1855937382329413   T   T   T
  0.2500000000000000  0.3500000000000014  0.0514307684100572   F   F   F
  0.2500000000000000  0.8500000000000014  0.0514307684100572   F   F   F
  0.4361922651525911  0.2772687226653547  0.3315238150807649   T   T   T
  0.1507252829162628  0.6489864416498848  0.1853659281879895   F   F   F
  0.1945622204254389  0.5010359951391503  0.2535794873452144   T   T   T
  0.4962401433468745  0.1056686812969443  0.2525025017347924   T   T   T
  0.5000000000000000  0.1000000000000014  0.1181313319610595   F   F   F
  0.2979367625780525  0.2011780029479302  0.2571618825913837   T   T   T
  0.2998111227372704  0.7017686732596482  0.2584866161310815   T   T   T
  0.8999999999999986  0.3999999999999986  0.1181313319610595   F   F   F
  0.5960242630051852  0.7975707231841273  0.2529773279279208   T   T   T
  0.7500000000000000  0.8500000000000014  0.0514307684100572   F   F   F
  0.7965494724015599  0.7018113548459602  0.2587207639641603   T   T   T
  0.2999999999999972  0.7000000000000028  0.1181313319610595   F   F   F
  0.6000000000000014  0.2999999999999972  0.1181313319610595   F   F   F
  0.7999999999999972  0.7000000000000028  0.1181313319610595   F   F   F
  0.6959577274736432 -0.0014528179121515  0.2539163926422469   T   T   T
  0.5491182374295687  0.9512475927721618  0.1844623188205349   F   F   F
  0.7000000000000027  0.0000000000000000  0.1181313319610595   F   F   F
  0.5499999999999972  0.9500000000000028  0.0514307684100572   F   F   F
  0.6507236918031661  0.6489854869807887  0.1853661340816861   F   F   F
  0.4486144413896602  0.7506743341769924  0.1843622545089304   F   F   F
  0.6499999999999986  0.6499999999999986  0.0514307684100572   F   F   F
  0.6000000000000014  0.7999999999999972  0.1181313319610595   F   F   F
  0.5499999999999972  0.4500000000000027  0.0514307684100572   F   F   F
  0.4486122021981009  0.2506766379109669  0.1843629363752118   F   F   F
  0.5948216697946669  0.2970561708835590  0.2519753809755568   T   T   T
  0.5000000000000000  0.6000000000000014  0.1181313319610595   F   F   F
  0.3485320028910852  0.5512631916718084  0.1852336449463447   F   F   F
  0.4969792386605982  0.6067745043003105  0.2530817580975990   T   T   T
  0.4500000000000028  0.7500000000000000  0.0514307684100572   F   F   F
  0.1499999999999986  0.6499999999999986  0.0514307684100572   F   F   F
  0.9500000000000028  0.7500000000000000  0.0514307684100572   F   F   F
  0.0491177240126065  0.9512405474851490  0.1844615703293516   F   F   F
  0.7000000000000027  0.5000000000000000  0.1181313319610595   F   F   F
  0.3500000000000014  0.0499999999999972  0.0514307684100572   F   F   F
  0.7499668075026139  0.8492990416203603  0.1855918419518905   T   T   T
  0.1948684155235318 -0.0007103226061081  0.2538086765886252   T   T   T
  0.2000000000000028  0.0000000000000000  0.1181313319610595   F   F   F
  0.0499999999999972  0.9500000000000028  0.0514307684100572   F   F   F
  0.9486106854241280  0.7506756416198153  0.1843625136127240   F   F   F
  0.1000000000000014  0.7999999999999972  0.1181313319610595   F   F   F
  0.3999999999999986  0.8999999999999986  0.1181313319610595   F   F   F
  0.9951980618431625  0.6071549871330193  0.2534012512326488   T   T   T
  0.8485338373677122  0.5512634687110046  0.1852339858465592   F   F   F
  0.3500000000000014  0.5499999999999972  0.0514307684100572   F   F   F
  0.0000000000000000  0.6000000000000014  0.1181313319610595   F   F   F
  0.3998197603558057  0.4045999302560865  0.2533601457474647   T   T   T
  0.7499688545785510  0.3493009249718623  0.1855923550188662   T   T   T
  0.3999999999999986  0.3999999999999986  0.1181313319610595   F   F   F
  0.7500000000000000  0.3500000000000014  0.0514307684100572   F   F   F
  0.7976325049719002  0.2007197633464356  0.2571958213215137   T   T   T
  0.6507246110173561  0.1489888581776777  0.1853660239556655   F   F   F
  0.7999999999999972  0.2000000000000028  0.1181313319610595   F   F   F
  0.6499999999999986  0.1499999999999986  0.0514307684100572   F   F   F
  0.6948897643495956  0.4995253494822148  0.2538784688915256   T   T   T
  0.5491175178526683  0.4512445656232251  0.1844618875770611   F   F   F
  0.8500000000000014  0.5499999999999972  0.0514307684100572   F   F   F
  0.0962574821540260  0.7966635820632912  0.2522908849578347   T   T   T
Cartesian
  0.0000000000000000  0.0000000000000000  0.0000000000000000
  0.0000000000000000  0.0000000000000000  0.0000000000000000
  0.0000000000000000  0.0000000000000000  0.0000000000000000
  0.0000000000000000  0.0000000000000000  0.0000000000000000
  0.0000000000000000  0.0000000000000000  0.0000000000000000
  0.0000000000000000  0.0000000000000000  0.0000000000000000
  0.0000000000000000  0.0000000000000000  0.0000000000000000
  0.0000000000000000  0.0000000000000000  0.0000000000000000
  0.0000000000000000  0.0000000000000000  0.0000000000000000
  0.0000000000000000  0.0000000000000000  0.0000000000000000
  0.0000000000000000  0.0000000000000000  0.0000000000000000
  0.0000000000000000  0.0000000000000000  0.0000000000000000
  0.0000000000000000  0.0000000000000000  0.0000000000000000
  0.0000000000000000  0.0000000000000000  0.0000000000000000
  0.0000000000000000  0.0000000000000000  0.0000000000000000
  0.0000000000000000  0.0000000000000000  0.0000000000000000
  0.0000000000000000  0.0000000000000000  0.0000000000000000
  0.0000000000000000  0.0000000000000000  0.0000000000000000
  0.0000000000000000  0.0000000000000000  0.0000000000000000
  0.0000000000000000  0.0000000000000000  0.0000000000000000
  0.0000000000000000  0.0000000000000000  0.0000000000000000
  0.0000000000000000  0.0000000000000000  0.0000000000000000
  0.0000000000000000  0.0000000000000000  0.0000000000000000
  0.0000000000000000  0.0000000000000000  0.0000000000000000
  0.0000000000000000  0.0000000000000000  0.0000000000000000
  0.0000000000000000  0.0000000000000000  0.0000000000000000
  0.0000000000000000  0.0000000000000000  0.0000000000000000
  0.0000000000000000  0.0000000000000000  0.0000000000000000
  0.0000000000000000  0.0000000000000000  0.0000000000000000
  0.0000000000000000  0.0000000000000000  0.0000000000000000
  0.0000000000000000  0.0000000000000000  0.0000000000000000
  0.0000000000000000  0.0000000000000000  0.0000000000000000
  0.0000000000000000  0.0000000000000000  0.0000000000000000
  0.0000000000000000  0.0000000000000000  0.0000000000000000
  0.0000000000000000  0.0000000000000000  0.0000000000000000
  0.0000000000000000  0.0000000000000000  0.0000000000000000
  0.0000000000000000  0.0000000000000000  0.0000000000000000
  0.0000000000000000  0.0000000000000000  0.0000000000000000
  0.0000000000000000  0.0000000000000000  0.0000000000000000
  0.0000000000000000  0.0000000000000000  0.0000000000000000
  0.0000000000000000  0.0000000000000000  0.0000000000000000
  0.0000000000000000  0.0000000000000000  0.0000000000000000
  0.0000000000000000  0.0000000000000000  0.0000000000000000
  0.0000000000000000  0.0000000000000000  0.0000000000000000
  0.0000000000000000  0.0000000000000000  0.0000000000000000
  0.0000000000000000  0.0000000000000000  0.0000000000000000
  0.0000000000000000  0.0000000000000000  0.0000000000000000
  0.0000000000000000  0.0000000000000000  0.0000000000000000
  0.0000000000000000  0.0000000000000000  0.0000000000000000
  0.0000000000000000  0.0000000000000000  0.0000000000000000
  0.0000000000000000  0.0000000000000000  0.0000000000000000
  0.0000000000000000  0.0000000000000000  0.0000000000000000
  0.0000000000000000  0.0000000000000000  0.0000000000000000
  0.0000000000000000  0.0000000000000000  0.0000000000000000
  0.0000000000000000  0.0000000000000000  0.0000000000000000
  0.0000000000000000  0.0000000000000000  0.0000000000000000
  0.0000000000000000  0.0000000000000000  0.0000000000000000
  0.0000000000000000  0.0000000000000000  0.0000000000000000
  0.0000000000000000  0.0000000000000000  0.0000000000000000
  0.0000000000000000  0.0000000000000000  0.0000000000000000
  0.0000000000000000  0.0000000000000000  0.0000000000000000
  0.0000000000000000  0.0000000000000000  0.0000000000000000
  0.0000000000000000  0.0000000000000000  0.0000000000000000
  0.0000000000000000  0.0000000000000000  0.0000000000000000
  0.0000000000000000  0.0000000000000000  0.0000000000000000
  0.0000000000000000  0.0000000000000000  0.0000000000000000
  0.0000000000000000  0.0000000000000000  0.0000000000000000
  0.0000000000000000  0.0000000000000000  0.0000000000000000
  0.0000000000000000  0.0000000000000000  0.0000000000000000
  0.0000000000000000  0.0000000000000000  0.0000000000000000
  0.0000000000000000  0.0000000000000000  0.0000000000000000
  0.0000000000000000  0.0000000000000000  0.0000000000000000
  0.0000000000000000  0.0000000000000000  0.0000000000000000
  0.0000000000000000  0.0000000000000000  0.0000000000000000
  0.0000000000000000  0.0000000000000000  0.0000000000000000
  0.0000000000000000  0.0000000000000000  0.0000000000000000
  0.0000000000000000  0.0000000000000000  0.0000000000000000
  0.0000000000000000  0.0000000000000000  0.0000000000000000
  0.0000000000000000  0.0000000000000000  0.0000000000000000
  0.0000000000000000  0.0000000000000000  0.0000000000000000
  0.0000000000000000  0.0000000000000000  0.0000000000000000
  0.0000000000000000  0.0000000000000000  0.0000000000000000
  0.0000000000000000  0.0000000000000000  0.0000000000000000
  0.0000000000000000  0.0000000000000000  0.0000000000000000
  0.0000000000000000  0.0000000000000000  0.0000000000000000
  0.0000000000000000  0.0000000000000000  0.0000000000000000
  0.0000000000000000  0.0000000000000000  0.0000000000000000
  0.0000000000000000  0.0000000000000000  0.0000000000000000
  0.0000000000000000  0.0000000000000000  0.0000000000000000
  0.0000000000000000  0.0000000000000000  0.0000000000000000
  0.0000000000000000  0.0000000000000000  0.0000000000000000
  0.0000000000000000  0.0000000000000000  0.0000000000000000
  0.0000000000000000  0.0000000000000000  0.0000000000000000
  0.0000000000000000  0.0000000000000000  0.0000000000000000
  0.0000000000000000  0.0000000000000000  0.0000000000000000
  0.0000000000000000  0.0000000000000000  0.0000000000000000
  0.0000000000000000  0.0000000000000000  0.0000000000000000
  0.0000000000000000  0.0000000000000000  0.0000000000000000
  0.0000000000000000  0.0000000000000000  0.0000000000000000
  0.0000000000000000  0.0000000000000000  0.0000000000000000
  0.0000000000000000  0.0000000000000000  0.0000000000000000
  0.0000000000000000  0.0000000000000000  0.0000000000000000
  0.0000000000000000  0.0000000000000000  0.0000000000000000
  0.0000000000000000  0.0000000000000000  0.0000000000000000
  0.0000000000000000  0.0000000000000000  0.0000000000000000
  0.0000000000000000  0.0000000000000000  0.0000000000000000
  0.0000000000000000  0.0000000000000000  0.0000000000000000
  0.0000000000000000  0.0000000000000000  0.0000000000000000
  0.0000000000000000  0.0000000000000000  0.0000000000000000
  0.0000000000000000  0.0000000000000000  0.0000000000000000
  0.0000000000000000  0.0000000000000000  0.0000000000000000
  0.0000000000000000  0.0000000000000000  0.0000000000000000
  0.0000000000000000  0.0000000000000000  0.0000000000000000
  0.0000000000000000  0.0000000000000000  0.0000000000000000
  0.0000000000000000  0.0000000000000000  0.0000000000000000
  0.0000000000000000  0.0000000000000000  0.0000000000000000
  0.0000000000000000  0.0000000000000000  0.0000000000000000
