C  O  Pd
 1.0000000000000000
     9.5317092920176041    0.0000000000000000    0.0000000000000000
     0.0000000000000000   12.8477517144159332    0.0000000000000000
     0.0000000000000000    0.0000000000000000   32.1028443220921673
 C   O   Pd 
   1  97  48
Selective dynamics
Direct
  0.8624014619163610  0.7979901931001833  0.5027123180118318   T   T   T
  0.8340695813786549  0.0269376793004344  0.3909418844871282   T   T   T
  0.8333333333333357  0.2789897956032235  0.0851486940133555   F   F   F
  0.3336486541480661  0.8531562485817147  0.3495024611580754   T   T   T
  0.3342887348568341  0.8796464634130055  0.4267002042136001   T   T   T
  0.5007641578115096  0.7157653908876362  0.3979475179150648   T   T   T
  0.5006000522113815  0.5263049766025472  0.3912118897682825   T   T   T
  0.3335394009048416  0.6063758475101283  0.2477867108157289   T   T   T
  0.3337866896173548  0.6460037014183687  0.3241880612408731   T   T   T
  0.5004055709250508  0.9707355814980355  0.2973798956057438   T   T   T
  0.3335623746607795  0.1070664153183939  0.2477513931544176   T   T   T
  0.3337346647325470  0.3538794164731950  0.3496129396610377   T   T   T
  0.3333318648019943  0.8750000864356643  0.2250895420487288   F   F   F
  0.4999976377976332  0.7209531764862156  0.1895758217978223   F   F   F
  0.3333333333333357  0.6250000000000000  0.0467248317610185   F   F   F
  0.3333333333333357  0.6250000000000000  0.1235725562656853   F   F   F
  0.5000000000000000  0.9710102043967765  0.0851486940133555   F   F   F
  0.5000000000000000  0.7789897956032235  0.0851486940133555   F   F   F
  0.6678312171943938  0.8807933935408132  0.4261430716821726   T   T   T
  0.3340602148352747  0.3794365209237059  0.4267288536137184   T   T   T
  0.5005424770727461  0.2161446828081823  0.3982952323136772   T   T   T
  0.3333333333333357  0.8750000000000000  0.1467763379882641   F   F   F
  0.5003082979558301  0.7792860727590212  0.2782989543207075   T   T   T
  0.4999976639328576  0.5290466686199733  0.1895761637574985   F   F   F
  0.6672703867162402  0.3792668544614612  0.4267322745514245   T   T   T
  0.8341927123528029  0.7162138764730768  0.3977318423754284   T   T   T
  0.6668472421532056  0.6062927629609773  0.2477947550494538   T   T   T
  0.8342472731948640  0.5263404460462910  0.3912077154102777   T   T   T
  0.8333333333333357  0.4710102043967765  0.0851486940133555   F   F   F
  0.8333339558353259  0.0290462541212847  0.1895758119370538   F   F   F
  0.6666666666666643  0.1250000000000000  0.1235725562656853   F   F   F
  0.3333333333333357  0.3750000000000000  0.1467763379882641   F   F   F
  0.8337700317852640  0.9707127067215534  0.2972571216553750   T   T   T
  0.5001778892677583  0.2789434275030667  0.2784118177297112   T   T   T
  0.6670470210249088  0.6457296668454626  0.3242850856589161   T   T   T
  0.8333333409382341  0.7209531152421449  0.1895756052193645   F   F   F
  0.8338106813767820  0.7792614606460516  0.2782547221115387   T   T   T
  0.6666666666666643  0.8750000000000000  0.1467763379882641   F   F   F
  0.6666655358647100  0.8750000108504334  0.2250883423864175   F   F   F
  0.8333333008508301  0.5290468981117665  0.1895759154731361   F   F   F
  0.6666666666666643  0.6250000000000000  0.0467248317610185   F   F   F
  0.6666666666666643  0.6250000000000000  0.1235725562656853   F   F   F
  0.8333333333333357  0.9710102043967765  0.0851486940133555   F   F   F
  0.8333333333333357  0.7789897956032235  0.0851486940133555   F   F   F
  0.6672345859623116  0.3538168290313519  0.3495779848481717   T   T   T
  0.5001488826265229  0.4705532443731302  0.2973033437652731   T   T   T
  0.5006646106327924  0.0266478676695517  0.3910859699902693   T   T   T
  0.8340720879768987  0.2161603052700327  0.3983544562682964   T   T   T
  0.3337714861884499  0.1452767139768253  0.3242474102201735   T   T   T
  0.6668801433676973  0.1069737016037612  0.2477583760258664   T   T   T
  0.8337209935275844  0.4705673969992755  0.2972297496620838   T   T   T
  0.8337481895558270  0.2789743332664995  0.2784041287963592   T   T   T
  0.6666666666666643  0.3750000000000000  0.1467763379882641   F   F   F
  0.6666664721965994  0.3750001394610554  0.2250885421256194   F   F   F
  0.8333336160653568  0.2209531548581329  0.1895755782756444   F   F   F
  0.6666666666666643  0.1250000000000000  0.0467248317610185   F   F   F
  0.3333326882537072  0.3749997926392740  0.2250885499289598   F   F   F
  0.6670617779133752  0.8527597736713096  0.3491916127294418   T   T   T
  0.4999980417944865  0.0290462347966568  0.1895760715474884   F   F   F
  0.1666659623339084  0.7209538630219027  0.1895756713862576   F   F   F
  1.0002525094044876  0.1069268257059194  0.2477569991835318   T   T   T
  0.1666659175182925  0.5290462010831961  0.1895759780398522   F   F   F
  0.0000000000000000  0.6250000000000000  0.0467248317610185   F   F   F
  0.4999988243319552  0.2209529651499486  0.1895755725505499   F   F   F
  0.1666666666666643  0.9710102043967765  0.0851486940133555   F   F   F
  0.1666666666666643  0.7789897956032235  0.0851486940133555   F   F   F
  0.0006418863807555  0.3537497601018756  0.3495828219882774   T   T   T
  1.0004851898187408  0.3790104918585309  0.4267010701786150   T   T   T
  0.1675626999405194  0.2159617914275470  0.3982339701931805   T   T   T
  0.1676039353096868  0.0266465168603898  0.3909062721085627   T   T   T
  0.0003669942766525  0.1453888507228167  0.3242458629473869   T   T   T
  0.0000003549571299  0.8750000107713112  0.2250882234763902   F   F   F
  0.1670441954935529  0.4706634245403872  0.2972487252474525   T   T   T
  0.8939239746933855  0.7117477672593968  0.5016709796243690   T   T   T
  0.0000000000000000  0.3750000000000000  0.1467763379882641   F   F   F
  0.1669303358160982  0.2788245201048881  0.2784872113543194   T   T   T
  0.0000007107164886  0.3749999603060230  0.2250885125878732   F   F   F
  0.1666663027958614  0.2209539505437224  0.1895756072453514   F   F   F
  0.1666663400494306  0.0290460185855896  0.1895759024921872   F   F   F
  0.0000000000000000  0.1250000000000000  0.0467248317610185   F   F   F
  0.0000000000000000  0.1250000000000000  0.1235725562656853   F   F   F
  0.1666666666666643  0.4710102043967765  0.0851486940133555   F   F   F
  0.1666666666666643  0.2789897956032235  0.0851486940133555   F   F   F
  0.0000000000000000  0.8750000000000000  0.1467763379882641   F   F   F
  0.1670642303951622  0.7793334551668960  0.2784904225468379   T   T   T
  0.0000000000000000  0.6250000000000000  0.1235725562656853   F   F   F
  0.6670140447690545  0.1452643300198782  0.3242971553346640   T   T   T
  0.1672008818857741  0.5263402859027803  0.3912500625341290   T   T   T
  0.5000000000000000  0.2789897956032235  0.0851486940133555   F   F   F
  0.1672872103931569  0.7159512476450911  0.3979325118536762   T   T   T
  1.0006263315260950  0.8817426602891527  0.4263580103344777   T   T   T
  0.3333333333333357  0.1250000000000000  0.1235725562656853   F   F   F
  1.0002184363773323  0.6063600900547665  0.2477889113524385   T   T   T
  0.5000000000000000  0.4710102043967765  0.0851486940133555   F   F   F
  0.0011780662770129  0.8534302374599076  0.3493401970710796   T   T   T
  0.0001801234168389  0.6453908491690302  0.3242510115461754   T   T   T
  0.1671440938817552  0.9707870895568540  0.2973567020832615   T   T   T
  0.3333333333333357  0.1250000000000000  0.0467248317610185   F   F   F
  0.6670474370442669  0.8745473227557014  0.2878422978808591   T   T   T
  0.8335733675457355  0.6244359575338455  0.2859456566903416   T   T   T
  0.3337238997217997  0.8745332347801757  0.2879432393291386   T   T   T
  0.6666655568862668  0.6249997720375131  0.1847577838516319   F   F   F
  0.3341823205230067  0.1224303022532038  0.3857254021149891   T   T   T
  0.8333333333333357  0.6250000000000000  0.0851486940133555   F   F   F
  0.6666666666666643  0.8750000000000000  0.0851486940133555   F   F   F
  0.8333311666192106  0.8749995704976669  0.1858642171120021   F   F   F
  0.1669881105927243  0.1241214254788380  0.2859510028036786   T   T   T
  0.1666666847735583  0.3750001305958783  0.1858643915636921   F   F   F
  0.6675520056535709  0.6219326113646525  0.3857131913412272   T   T   T
  0.3335278561921093  0.3742305730413180  0.2879735586409792   T   T   T
  0.5003268557639517  0.1242464535517993  0.2859538044567647   T   T   T
  0.8341166465423926  0.8713777279304277  0.3879630240793349   T   T   T
  0.3333354546060130  0.1249999476819220  0.1847578122735502   F   F   F
  0.0000000000000000  0.3750000000000000  0.0851486940133555   F   F   F
  0.9999970987911158  0.1250000184490408  0.1847578466783704   F   F   F
  0.3333333333333357  0.3750000000000000  0.0851486940133555   F   F   F
  0.1672542706191566  0.3708039099366586  0.3885122595361531   T   T   T
  0.5005989898983512  0.3708627666233264  0.3884759208878720   T   T   T
  0.1666666666666643  0.1250000000000000  0.0851486940133555   F   F   F
  0.5000014304295636  0.3749999974283293  0.1858644222348644   F   F   F
  0.5000000000000000  0.1250000000000000  0.0851486940133555   F   F   F
  0.1666666666666643  0.6250000000000000  0.0851486940133555   F   F   F
  1.0004168750432776  0.3742980130931864  0.2879628533256126   T   T   T
  0.5000005790671146  0.8749996008049955  0.1858647103970161   F   F   F
  0.3339704796673810  0.6220384213829598  0.3855996451236169   T   T   T
  0.1675751678569615  0.8710805409607922  0.3883993836386449   T   T   T
  0.3333348655297959  0.6249998188937667  0.1847577531331055   F   F   F
  0.9999968754065039  0.6249998164331720  0.1847577848474051   F   F   F
  0.8333333333333357  0.1250000000000000  0.0851486940133555   F   F   F
  0.6666666666666643  0.3750000000000000  0.0851486940133555   F   F   F
  0.1666668975657561  0.8749998441626324  0.1858646099702742   F   F   F
  1.0006532223195908  0.6221680718697358  0.3856827169892485   T   T   T
  0.6673424837268356  0.1226219412390716  0.3858366061411458   T   T   T
  0.6666662687465629  0.1249996349829204  0.1847578301666214   F   F   F
  0.0000000000000000  0.8750000000000000  0.0851486940133555   F   F   F
  0.8336378423696024  0.1242728966865141  0.2859510073629900   T   T   T
  0.6669523470566737  0.3742775853673936  0.2879524030018120   T   T   T
  0.3333333333333357  0.8750000000000000  0.0851486940133555   F   F   F
  0.5000000000000000  0.6250000000000000  0.0851486940133555   F   F   F
  1.0008000938127577  0.1224617845230671  0.3857431132817789   T   T   T
  0.5003119956778687  0.6244715621557675  0.2859476039473529   T   T   T
  0.1669474713507232  0.6245046002878479  0.2859673845382710   T   T   T
  0.8333316115610666  0.3750001538755701  0.1858644410325545   F   F   F
  1.0005124234304650  0.8745667222093667  0.2878703771202127   T   T   T
  0.8339512436704259  0.3708227952265141  0.3884731442090910   T   T   T
  0.5006265714806281  0.8708320747337506  0.3882325605748687   T   T   T
Cartesian
  0.0000000000000000  0.0000000000000000  0.0000000000000000
  0.0000000000000000  0.0000000000000000  0.0000000000000000
  0.0000000000000000  0.0000000000000000  0.0000000000000000
  0.0000000000000000  0.0000000000000000  0.0000000000000000
  0.0000000000000000  0.0000000000000000  0.0000000000000000
  0.0000000000000000  0.0000000000000000  0.0000000000000000
  0.0000000000000000  0.0000000000000000  0.0000000000000000
  0.0000000000000000  0.0000000000000000  0.0000000000000000
  0.0000000000000000  0.0000000000000000  0.0000000000000000
  0.0000000000000000  0.0000000000000000  0.0000000000000000
  0.0000000000000000  0.0000000000000000  0.0000000000000000
  0.0000000000000000  0.0000000000000000  0.0000000000000000
  0.0000000000000000  0.0000000000000000  0.0000000000000000
  0.0000000000000000  0.0000000000000000  0.0000000000000000
  0.0000000000000000  0.0000000000000000  0.0000000000000000
  0.0000000000000000  0.0000000000000000  0.0000000000000000
  0.0000000000000000  0.0000000000000000  0.0000000000000000
  0.0000000000000000  0.0000000000000000  0.0000000000000000
  0.0000000000000000  0.0000000000000000  0.0000000000000000
  0.0000000000000000  0.0000000000000000  0.0000000000000000
  0.0000000000000000  0.0000000000000000  0.0000000000000000
  0.0000000000000000  0.0000000000000000  0.0000000000000000
  0.0000000000000000  0.0000000000000000  0.0000000000000000
  0.0000000000000000  0.0000000000000000  0.0000000000000000
  0.0000000000000000  0.0000000000000000  0.0000000000000000
  0.0000000000000000  0.0000000000000000  0.0000000000000000
  0.0000000000000000  0.0000000000000000  0.0000000000000000
  0.0000000000000000  0.0000000000000000  0.0000000000000000
  0.0000000000000000  0.0000000000000000  0.0000000000000000
  0.0000000000000000  0.0000000000000000  0.0000000000000000
  0.0000000000000000  0.0000000000000000  0.0000000000000000
  0.0000000000000000  0.0000000000000000  0.0000000000000000
  0.0000000000000000  0.0000000000000000  0.0000000000000000
  0.0000000000000000  0.0000000000000000  0.0000000000000000
  0.0000000000000000  0.0000000000000000  0.0000000000000000
  0.0000000000000000  0.0000000000000000  0.0000000000000000
  0.0000000000000000  0.0000000000000000  0.0000000000000000
  0.0000000000000000  0.0000000000000000  0.0000000000000000
  0.0000000000000000  0.0000000000000000  0.0000000000000000
  0.0000000000000000  0.0000000000000000  0.0000000000000000
  0.0000000000000000  0.0000000000000000  0.0000000000000000
  0.0000000000000000  0.0000000000000000  0.0000000000000000
  0.0000000000000000  0.0000000000000000  0.0000000000000000
  0.0000000000000000  0.0000000000000000  0.0000000000000000
  0.0000000000000000  0.0000000000000000  0.0000000000000000
  0.0000000000000000  0.0000000000000000  0.0000000000000000
  0.0000000000000000  0.0000000000000000  0.0000000000000000
  0.0000000000000000  0.0000000000000000  0.0000000000000000
  0.0000000000000000  0.0000000000000000  0.0000000000000000
  0.0000000000000000  0.0000000000000000  0.0000000000000000
  0.0000000000000000  0.0000000000000000  0.0000000000000000
  0.0000000000000000  0.0000000000000000  0.0000000000000000
  0.0000000000000000  0.0000000000000000  0.0000000000000000
  0.0000000000000000  0.0000000000000000  0.0000000000000000
  0.0000000000000000  0.0000000000000000  0.0000000000000000
  0.0000000000000000  0.0000000000000000  0.0000000000000000
  0.0000000000000000  0.0000000000000000  0.0000000000000000
  0.0000000000000000  0.0000000000000000  0.0000000000000000
  0.0000000000000000  0.0000000000000000  0.0000000000000000
  0.0000000000000000  0.0000000000000000  0.0000000000000000
  0.0000000000000000  0.0000000000000000  0.0000000000000000
  0.0000000000000000  0.0000000000000000  0.0000000000000000
  0.0000000000000000  0.0000000000000000  0.0000000000000000
  0.0000000000000000  0.0000000000000000  0.0000000000000000
  0.0000000000000000  0.0000000000000000  0.0000000000000000
  0.0000000000000000  0.0000000000000000  0.0000000000000000
  0.0000000000000000  0.0000000000000000  0.0000000000000000
  0.0000000000000000  0.0000000000000000  0.0000000000000000
  0.0000000000000000  0.0000000000000000  0.0000000000000000
  0.0000000000000000  0.0000000000000000  0.0000000000000000
  0.0000000000000000  0.0000000000000000  0.0000000000000000
  0.0000000000000000  0.0000000000000000  0.0000000000000000
  0.0000000000000000  0.0000000000000000  0.0000000000000000
  0.0000000000000000  0.0000000000000000  0.0000000000000000
  0.0000000000000000  0.0000000000000000  0.0000000000000000
  0.0000000000000000  0.0000000000000000  0.0000000000000000
  0.0000000000000000  0.0000000000000000  0.0000000000000000
  0.0000000000000000  0.0000000000000000  0.0000000000000000
  0.0000000000000000  0.0000000000000000  0.0000000000000000
  0.0000000000000000  0.0000000000000000  0.0000000000000000
  0.0000000000000000  0.0000000000000000  0.0000000000000000
  0.0000000000000000  0.0000000000000000  0.0000000000000000
  0.0000000000000000  0.0000000000000000  0.0000000000000000
  0.0000000000000000  0.0000000000000000  0.0000000000000000
  0.0000000000000000  0.0000000000000000  0.0000000000000000
  0.0000000000000000  0.0000000000000000  0.0000000000000000
  0.0000000000000000  0.0000000000000000  0.0000000000000000
  0.0000000000000000  0.0000000000000000  0.0000000000000000
  0.0000000000000000  0.0000000000000000  0.0000000000000000
  0.0000000000000000  0.0000000000000000  0.0000000000000000
  0.0000000000000000  0.0000000000000000  0.0000000000000000
  0.0000000000000000  0.0000000000000000  0.0000000000000000
  0.0000000000000000  0.0000000000000000  0.0000000000000000
  0.0000000000000000  0.0000000000000000  0.0000000000000000
  0.0000000000000000  0.0000000000000000  0.0000000000000000
  0.0000000000000000  0.0000000000000000  0.0000000000000000
  0.0000000000000000  0.0000000000000000  0.0000000000000000
  0.0000000000000000  0.0000000000000000  0.0000000000000000
  0.0000000000000000  0.0000000000000000  0.0000000000000000
  0.0000000000000000  0.0000000000000000  0.0000000000000000
  0.0000000000000000  0.0000000000000000  0.0000000000000000
  0.0000000000000000  0.0000000000000000  0.0000000000000000
  0.0000000000000000  0.0000000000000000  0.0000000000000000
  0.0000000000000000  0.0000000000000000  0.0000000000000000
  0.0000000000000000  0.0000000000000000  0.0000000000000000
  0.0000000000000000  0.0000000000000000  0.0000000000000000
  0.0000000000000000  0.0000000000000000  0.0000000000000000
  0.0000000000000000  0.0000000000000000  0.0000000000000000
  0.0000000000000000  0.0000000000000000  0.0000000000000000
  0.0000000000000000  0.0000000000000000  0.0000000000000000
  0.0000000000000000  0.0000000000000000  0.0000000000000000
  0.0000000000000000  0.0000000000000000  0.0000000000000000
  0.0000000000000000  0.0000000000000000  0.0000000000000000
  0.0000000000000000  0.0000000000000000  0.0000000000000000
  0.0000000000000000  0.0000000000000000  0.0000000000000000
  0.0000000000000000  0.0000000000000000  0.0000000000000000
  0.0000000000000000  0.0000000000000000  0.0000000000000000
  0.0000000000000000  0.0000000000000000  0.0000000000000000
  0.0000000000000000  0.0000000000000000  0.0000000000000000
  0.0000000000000000  0.0000000000000000  0.0000000000000000
  0.0000000000000000  0.0000000000000000  0.0000000000000000
  0.0000000000000000  0.0000000000000000  0.0000000000000000
  0.0000000000000000  0.0000000000000000  0.0000000000000000
  0.0000000000000000  0.0000000000000000  0.0000000000000000
  0.0000000000000000  0.0000000000000000  0.0000000000000000
  0.0000000000000000  0.0000000000000000  0.0000000000000000
  0.0000000000000000  0.0000000000000000  0.0000000000000000
  0.0000000000000000  0.0000000000000000  0.0000000000000000
  0.0000000000000000  0.0000000000000000  0.0000000000000000
  0.0000000000000000  0.0000000000000000  0.0000000000000000
  0.0000000000000000  0.0000000000000000  0.0000000000000000
  0.0000000000000000  0.0000000000000000  0.0000000000000000
  0.0000000000000000  0.0000000000000000  0.0000000000000000
  0.0000000000000000  0.0000000000000000  0.0000000000000000
  0.0000000000000000  0.0000000000000000  0.0000000000000000
  0.0000000000000000  0.0000000000000000  0.0000000000000000
  0.0000000000000000  0.0000000000000000  0.0000000000000000
  0.0000000000000000  0.0000000000000000  0.0000000000000000
  0.0000000000000000  0.0000000000000000  0.0000000000000000
  0.0000000000000000  0.0000000000000000  0.0000000000000000
  0.0000000000000000  0.0000000000000000  0.0000000000000000
  0.0000000000000000  0.0000000000000000  0.0000000000000000
  0.0000000000000000  0.0000000000000000  0.0000000000000000
  0.0000000000000000  0.0000000000000000  0.0000000000000000
  0.0000000000000000  0.0000000000000000  0.0000000000000000
  0.0000000000000000  0.0000000000000000  0.0000000000000000
