C  O  Pd
 1.0000000000000000
    12.3034736924171124    0.0000000000000000    0.0000000000000000
     0.0000000000000000   12.3034736924171142    0.0000000000000000
     0.0000000000000000    0.0000000000000000   29.1654207465942434
 C   O   Pd 
   1  17  96
Selective dynamics
Direct
  0.5456773775935909  0.6414961503713980  0.4639353336414815   T   T   T
  0.6877806876993209  0.9418377848298806  0.3206825425511474   T   T   T
  0.6852970061406719  0.1358518911530395  0.3613008049732975   T   T   T
  0.1854323889655815  0.6359589693757091  0.3614126002768757   T   T   T
  0.4379352427158206  0.1330117209469200  0.3625876687936945   T   T   T
  0.4342487602581378  0.4380283706676664  0.3217890032389698   T   T   T
  0.1878739101957882  0.9419121751904938  0.3206201421218982   T   T   T
  0.1854678993757033  0.1358339295105941  0.3612130567767187   T   T   T
  0.1881605349083870  0.4419897907865775  0.3206991584666301   T   T   T
  0.5373031388164601  0.5486008968306332  0.4641764011802018   T   T   T
  0.6878973040713935  0.4420065843063243  0.3206506379180298   T   T   T
  0.4380026085346916  0.6333436105982447  0.3627164076543729   T   T   T
  0.4342393982973659  0.9379824952745328  0.3216029097824130   T   T   T
  0.6858626884602178  0.6357398133888489  0.3615223435727989   T   T   T
  0.9341001643285242  0.9378817536777572  0.3216670291454220   T   T   T
  0.9378419678670148  0.1329107267148615  0.3626360299833986   T   T   T
  0.9381274062738389  0.6329791462123431  0.3624063006953436   T   T   T
  0.9344977451184786  0.4377291352630648  0.3215974822166063   T   T   T
  0.1499999999999986  0.1499999999999986  0.0514307684100572   F   F   F
  0.8500000000000014  0.0499999999999972  0.0514307684100572   F   F   F
  0.9006948930718652  0.9032975722876579  0.2537041664090562   T   T   T
  0.1507236091547503  0.1489864169829936  0.1853656493630883   F   F   F
  0.2999999999999972  0.2000000000000028  0.1181313319610595   F   F   F
  0.0000000000000000  0.1000000000000014  0.1181313319610595   F   F   F
  0.9500000000000028  0.2500000000000000  0.0514307684100572   F   F   F
  0.2499707131254955  0.8492987964248615  0.1855932700389138   T   T   T
  0.8485330413376032  0.0512636254534289  0.1852339871257567   F   F   F
  0.9486127127564162  0.2506768571014975  0.1843632683220324   F   F   F
  0.1000000000000014  0.2999999999999972  0.1181313319610595   F   F   F
  0.5612861327426314  0.5403211854896049  0.3401380972989652   T   T   T
  0.0610501256238212  0.0403345788008671  0.3398955155381910   T   T   T
  0.0961274009214339  0.2968759857038601  0.2520658965871284   T   T   T
  0.0499999999999972  0.4500000000000027  0.0514307684100572   F   F   F
  0.2000000000000028  0.5000000000000000  0.1181313319610595   F   F   F
  0.0491193131827514  0.4512444611448465  0.1844626448581111   F   F   F
  0.1958931586896698  0.4991108904035971  0.2539042901037050   T   T   T
  0.2983160034186843  0.2006910168998086  0.2572185969172210   T   T   T
  0.9967829112181390  0.1060223448640776  0.2535170629003949   T   T   T
  0.1889021144118616  0.2811180337001377  0.3346004113388234   T   T   T
  0.3485341556527256  0.0512641898857512  0.1852337169709379   F   F   F
  0.5000000000000000  0.1000000000000014  0.1181313319610595   F   F   F
  0.9378863841783064  0.7739506632138883  0.3317458174760760   T   T   T
  0.4007835637558930  0.9030153117486196  0.2537211686191302   T   T   T
  0.1888584322111538  0.7811251563271101  0.3346846701737906   T   T   T
  0.3122561218977210  0.0433840081531679  0.3399112125617239   T   T   T
  0.8124945349217710  0.5430687764600594  0.3400044486495982   T   T   T
  0.6885723380843486  0.2811725489064082  0.3346812566149292   T   T   T
  0.9379978035498177  0.2739861968085667  0.3320235315142074   T   T   T
  0.4381183980487673  0.7742113800459780  0.3321151684308535   T   T   T
  0.0614079712205379  0.5403530048263167  0.3399213939530490   T   T   T
  0.6887587965586413  0.7809212518745585  0.3347667286400801   T   T   T
  0.3124095752916667  0.5433809826284732  0.3402041312414716   T   T   T
  0.5610602470147730  0.0403080380225383  0.3399244975103610   T   T   T
  0.8999999999999986  0.8999999999999986  0.1181313319610595   F   F   F
  0.9006786647860981  0.4030059995005897  0.2537021556269804   T   T   T
  0.2499682108142002  0.3493012120833129  0.1855937382329413   T   T   T
  0.2500000000000000  0.3500000000000014  0.0514307684100572   F   F   F
  0.2500000000000000  0.8500000000000014  0.0514307684100572   F   F   F
  0.4379560109654378  0.2742801686798944  0.3321279795202097   T   T   T
  0.1507252829162628  0.6489864416498848  0.1853659281879895   F   F   F
  0.4500000000000028  0.2500000000000000  0.0514307684100572   F   F   F
  0.4965981467954245  0.1058776804431440  0.2535124664299752   T   T   T
  0.3500000000000014  0.5499999999999972  0.0514307684100572   F   F   F
  0.8121588614109669  0.0433324886271201  0.3399987356033654   T   T   T
  0.8999999999999986  0.3999999999999986  0.1181313319610595   F   F   F
  0.1957922149428460 -0.0008445777617744  0.2538635286324836   T   T   T
  0.2982359489137298  0.7004604979580823  0.2573053411155500   T   T   T
  0.7500000000000000  0.8500000000000014  0.0514307684100572   F   F   F
  0.7982015399227330  0.7003927655756883  0.2572045018719892   T   T   T
  0.2999999999999972  0.7000000000000028  0.1181313319610595   F   F   F
  0.6000000000000014  0.2999999999999972  0.1181313319610595   F   F   F
  0.7999999999999972  0.7000000000000028  0.1181313319610595   F   F   F
  0.6956577851967644 -0.0008646550761564  0.2539327893429101   T   T   T
  0.5491182374295687  0.9512475927721618  0.1844623188205349   F   F   F
  0.7000000000000027  0.0000000000000000  0.1181313319610595   F   F   F
  0.5499999999999972  0.9500000000000028  0.0514307684100572   F   F   F
  0.5961945828969397  0.7968104982928619  0.2521143099366562   T   T   T
  0.6507236918031661  0.6489854869807887  0.1853661340816861   F   F   F
  0.6499999999999986  0.6499999999999986  0.0514307684100572   F   F   F
  0.6000000000000014  0.7999999999999972  0.1181313319610595   F   F   F
  0.5499999999999972  0.4500000000000027  0.0514307684100572   F   F   F
  0.4486122021981009  0.2506766379109669  0.1843629363752118   F   F   F
  0.5960798877557860  0.2966490371085803  0.2520800550877186   T   T   T
  0.5000000000000000  0.6000000000000014  0.1181313319610595   F   F   F
  0.3485320028910852  0.5512631916718084  0.1852336449463447   F   F   F
  0.4967482549069980  0.6060196009932652  0.2534843938878791   T   T   T
  0.4500000000000028  0.7500000000000000  0.0514307684100572   F   F   F
  0.4486144413896602  0.7506743341769924  0.1843622545089304   F   F   F
  0.1499999999999986  0.6499999999999986  0.0514307684100572   F   F   F
  0.9500000000000028  0.7500000000000000  0.0514307684100572   F   F   F
  0.0491177240126065  0.9512405474851490  0.1844615703293516   F   F   F
  0.7499668075026139  0.8492990416203603  0.1855918419518905   T   T   T
  0.2000000000000028  0.0000000000000000  0.1181313319610595   F   F   F
  0.0499999999999972  0.9500000000000028  0.0514307684100572   F   F   F
  0.0960880189082164  0.7967517893485353  0.2520636106567268   T   T   T
  0.9486106854241280  0.7506756416198153  0.1843625136127240   F   F   F
  0.3999999999999986  0.8999999999999986  0.1181313319610595   F   F   F
  0.9966621822485898  0.6058193241280032  0.2535038923358301   T   T   T
  0.8485338373677122  0.5512634687110046  0.1852339858465592   F   F   F
  0.0000000000000000  0.6000000000000014  0.1181313319610595   F   F   F
  0.8500000000000014  0.5499999999999972  0.0514307684100572   F   F   F
  0.4010271271361218  0.4034204137149356  0.2538256774327367   T   T   T
  0.7499688545785510  0.3493009249718623  0.1855923550188662   T   T   T
  0.3999999999999986  0.3999999999999986  0.1181313319610595   F   F   F
  0.7500000000000000  0.3500000000000014  0.0514307684100572   F   F   F
  0.7982496133885794  0.2003588705754387  0.2573206372292861   T   T   T
  0.6507246110173561  0.1489888581776777  0.1853660239556655   F   F   F
  0.7999999999999972  0.2000000000000028  0.1181313319610595   F   F   F
  0.6499999999999986  0.1499999999999986  0.0514307684100572   F   F   F
  0.6956953883814124  0.4989513570040294  0.2539168888429181   T   T   T
  0.5491175178526683  0.4512445656232251  0.1844618875770611   F   F   F
  0.7000000000000027  0.5000000000000000  0.1181313319610595   F   F   F
  0.3500000000000014  0.0499999999999972  0.0514307684100572   F   F   F
  0.1000000000000014  0.7999999999999972  0.1181313319610595   F   F   F
Cartesian
  0.0000000000000000  0.0000000000000000  0.0000000000000000
  0.0000000000000000  0.0000000000000000  0.0000000000000000
  0.0000000000000000  0.0000000000000000  0.0000000000000000
  0.0000000000000000  0.0000000000000000  0.0000000000000000
  0.0000000000000000  0.0000000000000000  0.0000000000000000
  0.0000000000000000  0.0000000000000000  0.0000000000000000
  0.0000000000000000  0.0000000000000000  0.0000000000000000
  0.0000000000000000  0.0000000000000000  0.0000000000000000
  0.0000000000000000  0.0000000000000000  0.0000000000000000
  0.0000000000000000  0.0000000000000000  0.0000000000000000
  0.0000000000000000  0.0000000000000000  0.0000000000000000
  0.0000000000000000  0.0000000000000000  0.0000000000000000
  0.0000000000000000  0.0000000000000000  0.0000000000000000
  0.0000000000000000  0.0000000000000000  0.0000000000000000
  0.0000000000000000  0.0000000000000000  0.0000000000000000
  0.0000000000000000  0.0000000000000000  0.0000000000000000
  0.0000000000000000  0.0000000000000000  0.0000000000000000
  0.0000000000000000  0.0000000000000000  0.0000000000000000
  0.0000000000000000  0.0000000000000000  0.0000000000000000
  0.0000000000000000  0.0000000000000000  0.0000000000000000
  0.0000000000000000  0.0000000000000000  0.0000000000000000
  0.0000000000000000  0.0000000000000000  0.0000000000000000
  0.0000000000000000  0.0000000000000000  0.0000000000000000
  0.0000000000000000  0.0000000000000000  0.0000000000000000
  0.0000000000000000  0.0000000000000000  0.0000000000000000
  0.0000000000000000  0.0000000000000000  0.0000000000000000
  0.0000000000000000  0.0000000000000000  0.0000000000000000
  0.0000000000000000  0.0000000000000000  0.0000000000000000
  0.0000000000000000  0.0000000000000000  0.0000000000000000
  0.0000000000000000  0.0000000000000000  0.0000000000000000
  0.0000000000000000  0.0000000000000000  0.0000000000000000
  0.0000000000000000  0.0000000000000000  0.0000000000000000
  0.0000000000000000  0.0000000000000000  0.0000000000000000
  0.0000000000000000  0.0000000000000000  0.0000000000000000
  0.0000000000000000  0.0000000000000000  0.0000000000000000
  0.0000000000000000  0.0000000000000000  0.0000000000000000
  0.0000000000000000  0.0000000000000000  0.0000000000000000
  0.0000000000000000  0.0000000000000000  0.0000000000000000
  0.0000000000000000  0.0000000000000000  0.0000000000000000
  0.0000000000000000  0.0000000000000000  0.0000000000000000
  0.0000000000000000  0.0000000000000000  0.0000000000000000
  0.0000000000000000  0.0000000000000000  0.0000000000000000
  0.0000000000000000  0.0000000000000000  0.0000000000000000
  0.0000000000000000  0.0000000000000000  0.0000000000000000
  0.0000000000000000  0.0000000000000000  0.0000000000000000
  0.0000000000000000  0.0000000000000000  0.0000000000000000
  0.0000000000000000  0.0000000000000000  0.0000000000000000
  0.0000000000000000  0.0000000000000000  0.0000000000000000
  0.0000000000000000  0.0000000000000000  0.0000000000000000
  0.0000000000000000  0.0000000000000000  0.0000000000000000
  0.0000000000000000  0.0000000000000000  0.0000000000000000
  0.0000000000000000  0.0000000000000000  0.0000000000000000
  0.0000000000000000  0.0000000000000000  0.0000000000000000
  0.0000000000000000  0.0000000000000000  0.0000000000000000
  0.0000000000000000  0.0000000000000000  0.0000000000000000
  0.0000000000000000  0.0000000000000000  0.0000000000000000
  0.0000000000000000  0.0000000000000000  0.0000000000000000
  0.0000000000000000  0.0000000000000000  0.0000000000000000
  0.0000000000000000  0.0000000000000000  0.0000000000000000
  0.0000000000000000  0.0000000000000000  0.0000000000000000
  0.0000000000000000  0.0000000000000000  0.0000000000000000
  0.0000000000000000  0.0000000000000000  0.0000000000000000
  0.0000000000000000  0.0000000000000000  0.0000000000000000
  0.0000000000000000  0.0000000000000000  0.0000000000000000
  0.0000000000000000  0.0000000000000000  0.0000000000000000
  0.0000000000000000  0.0000000000000000  0.0000000000000000
  0.0000000000000000  0.0000000000000000  0.0000000000000000
  0.0000000000000000  0.0000000000000000  0.0000000000000000
  0.0000000000000000  0.0000000000000000  0.0000000000000000
  0.0000000000000000  0.0000000000000000  0.0000000000000000
  0.0000000000000000  0.0000000000000000  0.0000000000000000
  0.0000000000000000  0.0000000000000000  0.0000000000000000
  0.0000000000000000  0.0000000000000000  0.0000000000000000
  0.0000000000000000  0.0000000000000000  0.0000000000000000
  0.0000000000000000  0.0000000000000000  0.0000000000000000
  0.0000000000000000  0.0000000000000000  0.0000000000000000
  0.0000000000000000  0.0000000000000000  0.0000000000000000
  0.0000000000000000  0.0000000000000000  0.0000000000000000
  0.0000000000000000  0.0000000000000000  0.0000000000000000
  0.0000000000000000  0.0000000000000000  0.0000000000000000
  0.0000000000000000  0.0000000000000000  0.0000000000000000
  0.0000000000000000  0.0000000000000000  0.0000000000000000
  0.0000000000000000  0.0000000000000000  0.0000000000000000
  0.0000000000000000  0.0000000000000000  0.0000000000000000
  0.0000000000000000  0.0000000000000000  0.0000000000000000
  0.0000000000000000  0.0000000000000000  0.0000000000000000
  0.0000000000000000  0.0000000000000000  0.0000000000000000
  0.0000000000000000  0.0000000000000000  0.0000000000000000
  0.0000000000000000  0.0000000000000000  0.0000000000000000
  0.0000000000000000  0.0000000000000000  0.0000000000000000
  0.0000000000000000  0.0000000000000000  0.0000000000000000
  0.0000000000000000  0.0000000000000000  0.0000000000000000
  0.0000000000000000  0.0000000000000000  0.0000000000000000
  0.0000000000000000  0.0000000000000000  0.0000000000000000
  0.0000000000000000  0.0000000000000000  0.0000000000000000
  0.0000000000000000  0.0000000000000000  0.0000000000000000
  0.0000000000000000  0.0000000000000000  0.0000000000000000
  0.0000000000000000  0.0000000000000000  0.0000000000000000
  0.0000000000000000  0.0000000000000000  0.0000000000000000
  0.0000000000000000  0.0000000000000000  0.0000000000000000
  0.0000000000000000  0.0000000000000000  0.0000000000000000
  0.0000000000000000  0.0000000000000000  0.0000000000000000
  0.0000000000000000  0.0000000000000000  0.0000000000000000
  0.0000000000000000  0.0000000000000000  0.0000000000000000
  0.0000000000000000  0.0000000000000000  0.0000000000000000
  0.0000000000000000  0.0000000000000000  0.0000000000000000
  0.0000000000000000  0.0000000000000000  0.0000000000000000
  0.0000000000000000  0.0000000000000000  0.0000000000000000
  0.0000000000000000  0.0000000000000000  0.0000000000000000
  0.0000000000000000  0.0000000000000000  0.0000000000000000
  0.0000000000000000  0.0000000000000000  0.0000000000000000
  0.0000000000000000  0.0000000000000000  0.0000000000000000
  0.0000000000000000  0.0000000000000000  0.0000000000000000
  0.0000000000000000  0.0000000000000000  0.0000000000000000
