C  H  O  Pd
 1.0000000000000000
    12.2143708368485502    0.0000000000000000    0.0000000000000007
     0.0000000000000017   10.8116922467861709    0.0000000000000007
     0.0000000000000000    0.0000000000000000   29.2503334901734533
 C   H   O   Pd 
   1   3  49  56
Selective dynamics
Direct
  0.3044557392118399 -0.0259151161585543  0.4237440357407729   T   T   T
  0.2551436792502452  0.0530414990183265  0.4073867498330605   T   T   T
  0.3175848376129095 -0.0005839840352596  0.4600462271587188   T   T   T
  0.3847609424180776 -0.0253118370948063  0.4055597402511010   T   T   T
  0.5000001342961156  0.3746434636837175  0.2086347507080587   T   T   T
  0.5000000000000000  0.1250000000000000  0.1034790374483450   F   F   F
  0.5000000000000000  0.3750000000000000  0.1034790374483450   F   F   F
  0.2496428513947889  0.8734030162465799  0.3137604806175095   T   T   T
  0.2500000941816193  0.6253566118971372  0.2086348636703901   T   T   T
  0.2500000540154024  0.8746433924634129  0.2086348668591089   T   T   T
  0.2500000000000000  0.6250000000000000  0.1034790374483450   F   F   F
  0.2503253681024661  0.6250209555935011  0.3151960683566954   T   T   T
  0.5000000000000000  0.8750000000000001  0.1034790374483450   F   F   F
  0.5000000000000000  0.6250000000000000  0.1034790374483450   F   F   F
  0.4999999845274433  0.6253566050681870  0.2086348949301247   T   T   T
  0.5000001310433297  0.1253564178816644  0.2086348144247711   T   T   T
  0.7496009987955180  0.6222698945400312  0.3136218100917803   T   T   T
  0.7495924973857214  0.8739855187239594  0.3147493791457123   T   T   T
  0.7500001763429768  0.6253564403181003  0.2086347184870002   T   T   T
  0.7500001683851466  0.8746432931424059  0.2086348553162809   T   T   T
  0.7500000000000000  0.6250000000000000  0.1034790374483450   F   F   F
  0.2500000000000000  0.8750000000000001  0.1034790374483450   F   F   F
  0.7500000000000000  0.8750000000000001  0.1034790374483450   F   F   F
  0.2496493827474112 -0.1388446682732997  0.4217676869012300   T   T   T
  0.4999998141907326  0.8746432123910085  0.2086349067849812   T   T   T
  0.4990446387553796  0.3739096381040736  0.3146936723526167   T   T   T
  0.5001620117791729  0.1224696764393402  0.3132188823163901   T   T   T
  0.7496704104007940  0.1223362129813687  0.3137829582606723   T   T   T
  0.7499999407901679  0.1253564590539261  0.2086346494759109   F   F   F
  0.7501765755528180  0.3745990522489022  0.3142946928929786   T   T   T
  0.5003242987666803  0.8736525541630163  0.3139783656922135   T   T   T
  0.4995975588209089  0.6212124947496894  0.3133223530919110   T   T   T
  0.7500000000000000  0.3750000000000000  0.1034790374483450   F   F   F
  0.2501767586658016  0.1212774265680499  0.3124433209817012   T   T   T
  0.0000000000000000  0.6250000000000000  0.1034790374483450   F   F   F
  0.0000003093195438  0.8746432006014753  0.2086347012706246   T   T   T
  0.0000001717890977  0.6253564676804197  0.2086346535078811   F   F   F
  0.9990275335314807  0.8741710779079993  0.3143674141407417   T   T   T
  0.9992639155846826  0.1225108797358899  0.3134366298463881   T   T   T
  1.0005062990234976  0.3743994441370014  0.3148752634199805   T   T   T
  0.2493535217135485  0.3722701337151160  0.3164582975137038   T   T   T
  0.0000000906673265  0.3746433398517112  0.2086346491200444   F   F   F
  0.2500000000000000  0.3750000000000000  0.1034790374483450   F   F   F
 -0.0000000000000000  0.8750000000000001  0.1034790374483450   F   F   F
  0.2500001565921251  0.3746432215490525  0.2086349227437580   T   T   T
  0.2500000000000000  0.1250000000000000  0.1034790374483450   F   F   F
  0.2500002121287271  0.1253566769138708  0.2086349069410681   T   T   T
  0.0000000000000000  0.3750000000000000  0.1034790374483450   F   F   F
  0.0000000000000000  0.1250000000000000  0.1034790374483450   F   F   F
  0.7500000000000000  0.1250000000000000  0.1034790374483450   F   F   F
 -0.0001503530615474  0.6226385874013427  0.3140464525380218   T   T   T
  0.0000000680918900  0.1253566840092099  0.2086346773957300   T   T   T
  0.7500000113728454  0.3746434304486337  0.2086345460683278   F   F   F
  0.8743477454890841 -0.0019797445309978  0.3130473098646140   T   T   T
  0.7500390215392635  0.2495152568125457  0.2617642026020375   T   T   T
  0.7499940440151796  0.7495880931436694  0.2618277507981100   T   T   T
  0.1250000490227787  0.9999999537391714  0.2083512510515163   F   F   F
  0.8751181906746426  0.4986343286375635  0.3129684339564770   T   T   T
  0.8750002628252658  0.9999999076726724  0.2083511414037477   F   F   F
  0.7499999492943173  0.2499998973890912  0.1560719005187454   F   F   F
  0.8750000000000000  0.0000000000000000  0.1034790374483450   F   F   F
  0.0000000305378639  0.2499999899091724  0.1560719922121782   F   F   F
  0.7500001417602953  0.7499994873041090  0.1560720019688409   F   F   F
  0.1241991390853624  0.9980982937374882  0.3121925558274322   T   T   T
  0.3750000000000000  0.0000000000000000  0.1034790374483450   F   F   F
  0.4935711126702367  0.7445288662883485  0.3699715256992789   T   T   T
  1.0000693032059773  0.2499287084197852  0.2618335914755353   T   T   T
  0.8750003526753075  0.4999998740212845  0.2083512073452132   F   F   F
  0.7500000000000000  0.7500000000000000  0.0512814666029016   F   F   F
  0.8750000000000000  0.5000000000000000  0.1034790374483450   F   F   F
  1.0005814045533397  0.2448051556166735  0.3699737872013893   T   T   T
  0.3754979840452741  0.9977285467924935  0.3110733433857633   T   T   T
  0.6250000282706359  0.5000001736904404  0.2083512799526737   F   F   F
  0.6246499380786591  0.4979182320944868  0.3125773701786886   T   T   T
  0.1250000000000000  0.5000000000000000  0.1034790374483450   F   F   F
  0.0000000000000000  0.2500000000000000  0.0512814666029016   F   F   F
  0.7492518333993130  0.2474576955458060  0.3699090107583830   T   T   T
  0.1250000000000000  0.0000000000000000  0.1034790374483450   F   F   F
  0.1253040969815812  0.4983294295924150  0.3139794205539854   T   T   T
  0.0000000000000000  0.7500000000000000  0.0512814666029016   F   F   F
  0.2500001174677877  0.2500001432992012  0.1560720953180006   F   F   F
  0.5000000000000000  0.2500000000000000  0.0512814666029016   F   F   F
  0.2500000128051262  0.7499998164578953  0.1560720125206892   F   F   F
  0.2511648003374988  0.2339629952121942  0.3713255380687645   T   T   T
  0.2494194502173882  0.2503774716252319  0.2622067875173629   T   T   T
  0.2500000000000000  0.2500000000000000  0.0512814666029016   F   F   F
  0.3749999766530777  0.0000000103848568  0.2083513401927624   F   F   F
  0.3749999192595975  0.4999999237622314  0.2083514410374566   F   F   F
  0.6250000000000000  0.0000000000000000  0.1034790374483450   F   F   F
  0.2500000000000000  0.7500000000000000  0.0512814666029016   F   F   F
  0.5003823825879883  0.7489839261638925  0.2617022440427670   T   T   T
  0.6250001596235294  0.9999998419141339  0.2083511880761280   F   F   F
  0.4999999644933695  0.7499995734433390  0.1560719522146622   F   F   F
  0.1250001864597102  0.4999997469804928  0.2083513416983053   F   F   F
  0.6250000000000000  0.5000000000000000  0.1034790374483450   F   F   F
  0.5000000000000000  0.7500000000000000  0.0512814666029016   F   F   F
 -0.0002016945208846  0.7492725569167538  0.2617915297713776   T   T   T
  0.5040994255896812  0.2454528729717491  0.3700752865187845   T   T   T
  0.6248710595365077 -0.0018344166934252  0.3126383105566594   T   T   T
  0.4998092487036800  0.2499623710269113  0.2617833921745346   T   T   T
  0.9963758235552164  0.7473773164895009  0.3699347557739343   T   T   T
  0.5000000770400611  0.2499999680531972  0.1560718497316933   F   F   F
  0.2497617710027416  0.7490837889818371  0.2618501201414534   T   T   T
  0.0000002340500750  0.7499998236723172  0.1560719263822670   F   F   F
  0.3740289718077528  0.4973901985367495  0.3134975677487112   T   T   T
  0.7500000000000000  0.2500000000000000  0.0512814666029016   F   F   F
  0.2549182168916683  0.7470588205215564  0.3695253317002428   T   T   T
  0.7441684764504134  0.7459702936133398  0.3701729563421692   T   T   T
  0.3750000000000000  0.5000000000000000  0.1034790374483450   F   F   F
Cartesian
  0.0000000000000000  0.0000000000000000  0.0000000000000000
  0.0000000000000000  0.0000000000000000  0.0000000000000000
  0.0000000000000000  0.0000000000000000  0.0000000000000000
  0.0000000000000000  0.0000000000000000  0.0000000000000000
  0.0000000000000000  0.0000000000000000  0.0000000000000000
  0.0000000000000000  0.0000000000000000  0.0000000000000000
  0.0000000000000000  0.0000000000000000  0.0000000000000000
  0.0000000000000000  0.0000000000000000  0.0000000000000000
  0.0000000000000000  0.0000000000000000  0.0000000000000000
  0.0000000000000000  0.0000000000000000  0.0000000000000000
  0.0000000000000000  0.0000000000000000  0.0000000000000000
  0.0000000000000000  0.0000000000000000  0.0000000000000000
  0.0000000000000000  0.0000000000000000  0.0000000000000000
  0.0000000000000000  0.0000000000000000  0.0000000000000000
  0.0000000000000000  0.0000000000000000  0.0000000000000000
  0.0000000000000000  0.0000000000000000  0.0000000000000000
  0.0000000000000000  0.0000000000000000  0.0000000000000000
  0.0000000000000000  0.0000000000000000  0.0000000000000000
  0.0000000000000000  0.0000000000000000  0.0000000000000000
  0.0000000000000000  0.0000000000000000  0.0000000000000000
  0.0000000000000000  0.0000000000000000  0.0000000000000000
  0.0000000000000000  0.0000000000000000  0.0000000000000000
  0.0000000000000000  0.0000000000000000  0.0000000000000000
  0.0000000000000000  0.0000000000000000  0.0000000000000000
  0.0000000000000000  0.0000000000000000  0.0000000000000000
  0.0000000000000000  0.0000000000000000  0.0000000000000000
  0.0000000000000000  0.0000000000000000  0.0000000000000000
  0.0000000000000000  0.0000000000000000  0.0000000000000000
  0.0000000000000000  0.0000000000000000  0.0000000000000000
  0.0000000000000000  0.0000000000000000  0.0000000000000000
  0.0000000000000000  0.0000000000000000  0.0000000000000000
  0.0000000000000000  0.0000000000000000  0.0000000000000000
  0.0000000000000000  0.0000000000000000  0.0000000000000000
  0.0000000000000000  0.0000000000000000  0.0000000000000000
  0.0000000000000000  0.0000000000000000  0.0000000000000000
  0.0000000000000000  0.0000000000000000  0.0000000000000000
  0.0000000000000000  0.0000000000000000  0.0000000000000000
  0.0000000000000000  0.0000000000000000  0.0000000000000000
  0.0000000000000000  0.0000000000000000  0.0000000000000000
  0.0000000000000000  0.0000000000000000  0.0000000000000000
  0.0000000000000000  0.0000000000000000  0.0000000000000000
  0.0000000000000000  0.0000000000000000  0.0000000000000000
  0.0000000000000000  0.0000000000000000  0.0000000000000000
  0.0000000000000000  0.0000000000000000  0.0000000000000000
  0.0000000000000000  0.0000000000000000  0.0000000000000000
  0.0000000000000000  0.0000000000000000  0.0000000000000000
  0.0000000000000000  0.0000000000000000  0.0000000000000000
  0.0000000000000000  0.0000000000000000  0.0000000000000000
  0.0000000000000000  0.0000000000000000  0.0000000000000000
  0.0000000000000000  0.0000000000000000  0.0000000000000000
  0.0000000000000000  0.0000000000000000  0.0000000000000000
  0.0000000000000000  0.0000000000000000  0.0000000000000000
  0.0000000000000000  0.0000000000000000  0.0000000000000000
  0.0000000000000000  0.0000000000000000  0.0000000000000000
  0.0000000000000000  0.0000000000000000  0.0000000000000000
  0.0000000000000000  0.0000000000000000  0.0000000000000000
  0.0000000000000000  0.0000000000000000  0.0000000000000000
  0.0000000000000000  0.0000000000000000  0.0000000000000000
  0.0000000000000000  0.0000000000000000  0.0000000000000000
  0.0000000000000000  0.0000000000000000  0.0000000000000000
  0.0000000000000000  0.0000000000000000  0.0000000000000000
  0.0000000000000000  0.0000000000000000  0.0000000000000000
  0.0000000000000000  0.0000000000000000  0.0000000000000000
  0.0000000000000000  0.0000000000000000  0.0000000000000000
  0.0000000000000000  0.0000000000000000  0.0000000000000000
  0.0000000000000000  0.0000000000000000  0.0000000000000000
  0.0000000000000000  0.0000000000000000  0.0000000000000000
  0.0000000000000000  0.0000000000000000  0.0000000000000000
  0.0000000000000000  0.0000000000000000  0.0000000000000000
  0.0000000000000000  0.0000000000000000  0.0000000000000000
  0.0000000000000000  0.0000000000000000  0.0000000000000000
  0.0000000000000000  0.0000000000000000  0.0000000000000000
  0.0000000000000000  0.0000000000000000  0.0000000000000000
  0.0000000000000000  0.0000000000000000  0.0000000000000000
  0.0000000000000000  0.0000000000000000  0.0000000000000000
  0.0000000000000000  0.0000000000000000  0.0000000000000000
  0.0000000000000000  0.0000000000000000  0.0000000000000000
  0.0000000000000000  0.0000000000000000  0.0000000000000000
  0.0000000000000000  0.0000000000000000  0.0000000000000000
  0.0000000000000000  0.0000000000000000  0.0000000000000000
  0.0000000000000000  0.0000000000000000  0.0000000000000000
  0.0000000000000000  0.0000000000000000  0.0000000000000000
  0.0000000000000000  0.0000000000000000  0.0000000000000000
  0.0000000000000000  0.0000000000000000  0.0000000000000000
  0.0000000000000000  0.0000000000000000  0.0000000000000000
  0.0000000000000000  0.0000000000000000  0.0000000000000000
  0.0000000000000000  0.0000000000000000  0.0000000000000000
  0.0000000000000000  0.0000000000000000  0.0000000000000000
  0.0000000000000000  0.0000000000000000  0.0000000000000000
  0.0000000000000000  0.0000000000000000  0.0000000000000000
  0.0000000000000000  0.0000000000000000  0.0000000000000000
  0.0000000000000000  0.0000000000000000  0.0000000000000000
  0.0000000000000000  0.0000000000000000  0.0000000000000000
  0.0000000000000000  0.0000000000000000  0.0000000000000000
  0.0000000000000000  0.0000000000000000  0.0000000000000000
  0.0000000000000000  0.0000000000000000  0.0000000000000000
  0.0000000000000000  0.0000000000000000  0.0000000000000000
  0.0000000000000000  0.0000000000000000  0.0000000000000000
  0.0000000000000000  0.0000000000000000  0.0000000000000000
  0.0000000000000000  0.0000000000000000  0.0000000000000000
  0.0000000000000000  0.0000000000000000  0.0000000000000000
  0.0000000000000000  0.0000000000000000  0.0000000000000000
  0.0000000000000000  0.0000000000000000  0.0000000000000000
  0.0000000000000000  0.0000000000000000  0.0000000000000000
  0.0000000000000000  0.0000000000000000  0.0000000000000000
  0.0000000000000000  0.0000000000000000  0.0000000000000000
  0.0000000000000000  0.0000000000000000  0.0000000000000000
  0.0000000000000000  0.0000000000000000  0.0000000000000000
  0.0000000000000000  0.0000000000000000  0.0000000000000000
