C  H  O  Pd
 1.0000000000000000
    12.3034736924171124    0.0000000000000000    0.0000000000000000
     0.0000000000000000   12.3034736924171142    0.0000000000000000
     0.0000000000000000    0.0000000000000000   29.1654207465942434
 C   H   O   Pd 
   1   3  17  96
Selective dynamics
Direct
  0.0542674892914589  0.7824172868538481  0.4268053525628996   T   T   T
  0.0926929373158904  0.7017824957078400  0.4303127276724323   T   T   T
  0.0993642861722791  0.8423808549727645  0.4476712222499331   T   T   T
 -0.0302958948985790  0.7779198104229031  0.4393744756576878   T   T   T
  0.0546693704304710  0.8200516851883612  0.3802631600319301   T   T   T
  0.6797660273434920  0.1357883115307538  0.3616135753864115   T   T   T
  0.1842613400804015  0.6316716701363645  0.3620432937673588   T   T   T
  0.4332561794044927  0.1323451708816590  0.3631837884848161   T   T   T
  0.4303224997202044  0.4362322305340773  0.3213090198942273   T   T   T
  0.1851170524298484  0.9415781516160827  0.3197231346097607   T   T   T
  0.6827359023985515  0.9413831896746285  0.3208223223095724   T   T   T
  0.1814519664867138  0.4404140681317992  0.3204425311704554   T   T   T
  0.9292749769740716  0.6298228461122677  0.3638594079606019   T   T   T
  0.6818681976873654  0.4413680655471325  0.3202871058815510   T   T   T
  0.4311840297848920  0.6309677179472579  0.3629837681619357   T   T   T
  0.4288779262899044  0.9367748875057788  0.3222424294686974   T   T   T
  0.9292543760625878  0.4377855194850945  0.3217392529488664   T   T   T
  0.9333268273841105  0.1323195052358853  0.3617910472828371   T   T   T
  0.9264240547016651  0.9376586378454813  0.3202968426751865   T   T   T
  0.1795731311872355  0.1345652779973422  0.3612534666699402   T   T   T
  0.6799894323783676  0.6349016741707925  0.3617657891920545   T   T   T
  0.8500000000000014  0.0499999999999972  0.0514307684100572   F   F   F
  0.8994916331040764  0.9029984115577074  0.2531644256362727   T   T   T
  0.2499707131254955  0.8492987964248615  0.1855932700389138   T   T   T
  0.0559524618143531  0.0384808002837050  0.3395936949378128   T   T   T
  0.1507236091547503  0.1489864169829936  0.1853656493630883   F   F   F
  0.9500000000000028  0.2500000000000000  0.0514307684100572   F   F   F
  0.1499999999999986  0.1499999999999986  0.0514307684100572   F   F   F
  0.2999999999999972  0.2000000000000028  0.1181313319610595   F   F   F
  0.0000000000000000  0.1000000000000014  0.1181313319610595   F   F   F
  0.9486127127564162  0.2506768571014975  0.1843632683220324   F   F   F
  0.9961953786289550  0.1054903998013951  0.2531894267044359   T   T   T
  0.1000000000000014  0.2999999999999972  0.1181313319610595   F   F   F
  0.5555118826940936  0.5399982502321445  0.3399097326760758   T   T   T
  0.1822385711157558  0.2795780927032844  0.3344862501606680   T   T   T
  0.0944737850335039  0.2967783361452200  0.2516668150272403   T   T   T
  0.0499999999999972  0.4500000000000027  0.0514307684100572   F   F   F
  0.2000000000000028  0.5000000000000000  0.1181313319610595   F   F   F
  0.0491193131827514  0.4512444611448465  0.1844626448581111   F   F   F
  0.8485330413376032  0.0512636254534289  0.1852339871257567   F   F   F
  0.3074917558779789  0.5399877249493048  0.3398418208607896   T   T   T
  0.4500000000000028  0.2500000000000000  0.0514307684100572   F   F   F
  0.3485341556527256  0.0512641898857512  0.1852337169709379   F   F   F
  0.9269096175253796  0.7748498800735207  0.3355998004383171   T   T   T
  0.4008247328478452  0.9029828344897006  0.2538598466617950   T   T   T
  0.1894521863954100  0.7799221894364287  0.3369055460334551   T   T   T
  0.3075315440228921  0.0430251369193995  0.3402191676445952   T   T   T
  0.8060298277479232  0.5416006052088943  0.3402093499587309   T   T   T
  0.6828390509876794  0.2807920958188161  0.3347229725654278   T   T   T
  0.9336156666166905  0.2737879417455308  0.3315832768144080   T   T   T
  0.4291070991885644  0.7733081713122056  0.3331417400523334   T   T   T
  0.0554023575810813  0.5403457342979677  0.3402529597068404   T   T   T
  0.6850323812434824  0.7803458484747091  0.3351046078927168   T   T   T
  0.5558440818946712  0.0393516671157893  0.3405124871814223   T   T   T
  0.8065522666360395  0.0433773084920106  0.3398548546901254   T   T   T
  0.8999999999999986  0.8999999999999986  0.1181313319610595   F   F   F
  0.8992696722708544  0.4041158627432372  0.2536148758362178   T   T   T
  0.2499682108142002  0.3493012120833129  0.1855937382329413   T   T   T
  0.2500000000000000  0.3500000000000014  0.0514307684100572   F   F   F
  0.2500000000000000  0.8500000000000014  0.0514307684100572   F   F   F
  0.4339812012094638  0.2729921649524928  0.3321292134265678   T   T   T
  0.1507252829162628  0.6489864416498848  0.1853659281879895   F   F   F
  0.1942423279860919  0.4991531971626146  0.2539146974253328   T   T   T
  0.4961318293305274  0.1058347071985760  0.2536542103175782   T   T   T
  0.5000000000000000  0.1000000000000014  0.1181313319610595   F   F   F
  0.2971602938101205  0.2003329546600756  0.2573259515065997   T   T   T
  0.2958324932071873  0.7014117695526164  0.2585288039436139   T   T   T
  0.8999999999999986  0.3999999999999986  0.1181313319610595   F   F   F
  0.5959055692983083  0.7963968277606489  0.2520415202931173   T   T   T
  0.7500000000000000  0.8500000000000014  0.0514307684100572   F   F   F
  0.7991658568414364  0.7014273506284247  0.2585108690097782   T   T   T
  0.2999999999999972  0.7000000000000028  0.1181313319610595   F   F   F
  0.6000000000000014  0.2999999999999972  0.1181313319610595   F   F   F
  0.7999999999999972  0.7000000000000028  0.1181313319610595   F   F   F
  0.6941737718471055 -0.0012300484338873  0.2540220373886615   T   T   T
  0.5491182374295687  0.9512475927721618  0.1844623188205349   F   F   F
  0.7000000000000027  0.0000000000000000  0.1181313319610595   F   F   F
  0.5499999999999972  0.9500000000000028  0.0514307684100572   F   F   F
  0.6507236918031661  0.6489854869807887  0.1853661340816861   F   F   F
  0.4486144413896602  0.7506743341769924  0.1843622545089304   F   F   F
  0.6499999999999986  0.6499999999999986  0.0514307684100572   F   F   F
  0.6000000000000014  0.7999999999999972  0.1181313319610595   F   F   F
  0.5499999999999972  0.4500000000000027  0.0514307684100572   F   F   F
  0.4486122021981009  0.2506766379109669  0.1843629363752118   F   F   F
  0.5950841496810235  0.2969618479012708  0.2517459025781879   T   T   T
  0.5000000000000000  0.6000000000000014  0.1181313319610595   F   F   F
  0.3485320028910852  0.5512631916718084  0.1852336449463447   F   F   F
  0.4949951143868304  0.6067410067409648  0.2536128675547497   T   T   T
  0.4500000000000028  0.7500000000000000  0.0514307684100572   F   F   F
  0.1499999999999986  0.6499999999999986  0.0514307684100572   F   F   F
  0.9500000000000028  0.7500000000000000  0.0514307684100572   F   F   F
  0.0491177240126065  0.9512405474851490  0.1844615703293516   F   F   F
  0.7000000000000027  0.5000000000000000  0.1181313319610595   F   F   F
  0.3500000000000014  0.0499999999999972  0.0514307684100572   F   F   F
  0.7499668075026139  0.8492990416203603  0.1855918419518905   T   T   T
  0.1954349860720471 -0.0012871380072309  0.2535076469471528   T   T   T
  0.2000000000000028  0.0000000000000000  0.1181313319610595   F   F   F
  0.0499999999999972  0.9500000000000028  0.0514307684100572   F   F   F
  0.9486106854241280  0.7506756416198153  0.1843625136127240   F   F   F
  0.1000000000000014  0.7999999999999972  0.1181313319610595   F   F   F
  0.3999999999999986  0.8999999999999986  0.1181313319610595   F   F   F
  0.9964477660831937  0.6060297710172421  0.2532547189259041   T   T   T
  0.8485338373677122  0.5512634687110046  0.1852339858465592   F   F   F
  0.3500000000000014  0.5499999999999972  0.0514307684100572   F   F   F
  0.0000000000000000  0.6000000000000014  0.1181313319610595   F   F   F
  0.3996267671374277  0.4032262162196797  0.2533238809343309   T   T   T
  0.7499688545785510  0.3493009249718623  0.1855923550188662   T   T   T
  0.3999999999999986  0.3999999999999986  0.1181313319610595   F   F   F
  0.7500000000000000  0.3500000000000014  0.0514307684100572   F   F   F
  0.7968965310584021  0.2003489913477869  0.2573498539810574   T   T   T
  0.6507246110173561  0.1489888581776777  0.1853660239556655   F   F   F
  0.7999999999999972  0.2000000000000028  0.1181313319610595   F   F   F
  0.6499999999999986  0.1499999999999986  0.0514307684100572   F   F   F
  0.6944496420507609  0.5003125842099174  0.2537781076861879   T   T   T
  0.5491175178526683  0.4512445656232251  0.1844618875770611   F   F   F
  0.8500000000000014  0.5499999999999972  0.0514307684100572   F   F   F
  0.0950317512085626  0.7971291092861900  0.2524820032499971   T   T   T
Cartesian
  0.0000000000000000  0.0000000000000000  0.0000000000000000
  0.0000000000000000  0.0000000000000000  0.0000000000000000
  0.0000000000000000  0.0000000000000000  0.0000000000000000
  0.0000000000000000  0.0000000000000000  0.0000000000000000
  0.0000000000000000  0.0000000000000000  0.0000000000000000
  0.0000000000000000  0.0000000000000000  0.0000000000000000
  0.0000000000000000  0.0000000000000000  0.0000000000000000
  0.0000000000000000  0.0000000000000000  0.0000000000000000
  0.0000000000000000  0.0000000000000000  0.0000000000000000
  0.0000000000000000  0.0000000000000000  0.0000000000000000
  0.0000000000000000  0.0000000000000000  0.0000000000000000
  0.0000000000000000  0.0000000000000000  0.0000000000000000
  0.0000000000000000  0.0000000000000000  0.0000000000000000
  0.0000000000000000  0.0000000000000000  0.0000000000000000
  0.0000000000000000  0.0000000000000000  0.0000000000000000
  0.0000000000000000  0.0000000000000000  0.0000000000000000
  0.0000000000000000  0.0000000000000000  0.0000000000000000
  0.0000000000000000  0.0000000000000000  0.0000000000000000
  0.0000000000000000  0.0000000000000000  0.0000000000000000
  0.0000000000000000  0.0000000000000000  0.0000000000000000
  0.0000000000000000  0.0000000000000000  0.0000000000000000
  0.0000000000000000  0.0000000000000000  0.0000000000000000
  0.0000000000000000  0.0000000000000000  0.0000000000000000
  0.0000000000000000  0.0000000000000000  0.0000000000000000
  0.0000000000000000  0.0000000000000000  0.0000000000000000
  0.0000000000000000  0.0000000000000000  0.0000000000000000
  0.0000000000000000  0.0000000000000000  0.0000000000000000
  0.0000000000000000  0.0000000000000000  0.0000000000000000
  0.0000000000000000  0.0000000000000000  0.0000000000000000
  0.0000000000000000  0.0000000000000000  0.0000000000000000
  0.0000000000000000  0.0000000000000000  0.0000000000000000
  0.0000000000000000  0.0000000000000000  0.0000000000000000
  0.0000000000000000  0.0000000000000000  0.0000000000000000
  0.0000000000000000  0.0000000000000000  0.0000000000000000
  0.0000000000000000  0.0000000000000000  0.0000000000000000
  0.0000000000000000  0.0000000000000000  0.0000000000000000
  0.0000000000000000  0.0000000000000000  0.0000000000000000
  0.0000000000000000  0.0000000000000000  0.0000000000000000
  0.0000000000000000  0.0000000000000000  0.0000000000000000
  0.0000000000000000  0.0000000000000000  0.0000000000000000
  0.0000000000000000  0.0000000000000000  0.0000000000000000
  0.0000000000000000  0.0000000000000000  0.0000000000000000
  0.0000000000000000  0.0000000000000000  0.0000000000000000
  0.0000000000000000  0.0000000000000000  0.0000000000000000
  0.0000000000000000  0.0000000000000000  0.0000000000000000
  0.0000000000000000  0.0000000000000000  0.0000000000000000
  0.0000000000000000  0.0000000000000000  0.0000000000000000
  0.0000000000000000  0.0000000000000000  0.0000000000000000
  0.0000000000000000  0.0000000000000000  0.0000000000000000
  0.0000000000000000  0.0000000000000000  0.0000000000000000
  0.0000000000000000  0.0000000000000000  0.0000000000000000
  0.0000000000000000  0.0000000000000000  0.0000000000000000
  0.0000000000000000  0.0000000000000000  0.0000000000000000
  0.0000000000000000  0.0000000000000000  0.0000000000000000
  0.0000000000000000  0.0000000000000000  0.0000000000000000
  0.0000000000000000  0.0000000000000000  0.0000000000000000
  0.0000000000000000  0.0000000000000000  0.0000000000000000
  0.0000000000000000  0.0000000000000000  0.0000000000000000
  0.0000000000000000  0.0000000000000000  0.0000000000000000
  0.0000000000000000  0.0000000000000000  0.0000000000000000
  0.0000000000000000  0.0000000000000000  0.0000000000000000
  0.0000000000000000  0.0000000000000000  0.0000000000000000
  0.0000000000000000  0.0000000000000000  0.0000000000000000
  0.0000000000000000  0.0000000000000000  0.0000000000000000
  0.0000000000000000  0.0000000000000000  0.0000000000000000
  0.0000000000000000  0.0000000000000000  0.0000000000000000
  0.0000000000000000  0.0000000000000000  0.0000000000000000
  0.0000000000000000  0.0000000000000000  0.0000000000000000
  0.0000000000000000  0.0000000000000000  0.0000000000000000
  0.0000000000000000  0.0000000000000000  0.0000000000000000
  0.0000000000000000  0.0000000000000000  0.0000000000000000
  0.0000000000000000  0.0000000000000000  0.0000000000000000
  0.0000000000000000  0.0000000000000000  0.0000000000000000
  0.0000000000000000  0.0000000000000000  0.0000000000000000
  0.0000000000000000  0.0000000000000000  0.0000000000000000
  0.0000000000000000  0.0000000000000000  0.0000000000000000
  0.0000000000000000  0.0000000000000000  0.0000000000000000
  0.0000000000000000  0.0000000000000000  0.0000000000000000
  0.0000000000000000  0.0000000000000000  0.0000000000000000
  0.0000000000000000  0.0000000000000000  0.0000000000000000
  0.0000000000000000  0.0000000000000000  0.0000000000000000
  0.0000000000000000  0.0000000000000000  0.0000000000000000
  0.0000000000000000  0.0000000000000000  0.0000000000000000
  0.0000000000000000  0.0000000000000000  0.0000000000000000
  0.0000000000000000  0.0000000000000000  0.0000000000000000
  0.0000000000000000  0.0000000000000000  0.0000000000000000
  0.0000000000000000  0.0000000000000000  0.0000000000000000
  0.0000000000000000  0.0000000000000000  0.0000000000000000
  0.0000000000000000  0.0000000000000000  0.0000000000000000
  0.0000000000000000  0.0000000000000000  0.0000000000000000
  0.0000000000000000  0.0000000000000000  0.0000000000000000
  0.0000000000000000  0.0000000000000000  0.0000000000000000
  0.0000000000000000  0.0000000000000000  0.0000000000000000
  0.0000000000000000  0.0000000000000000  0.0000000000000000
  0.0000000000000000  0.0000000000000000  0.0000000000000000
  0.0000000000000000  0.0000000000000000  0.0000000000000000
  0.0000000000000000  0.0000000000000000  0.0000000000000000
  0.0000000000000000  0.0000000000000000  0.0000000000000000
  0.0000000000000000  0.0000000000000000  0.0000000000000000
  0.0000000000000000  0.0000000000000000  0.0000000000000000
  0.0000000000000000  0.0000000000000000  0.0000000000000000
  0.0000000000000000  0.0000000000000000  0.0000000000000000
  0.0000000000000000  0.0000000000000000  0.0000000000000000
  0.0000000000000000  0.0000000000000000  0.0000000000000000
  0.0000000000000000  0.0000000000000000  0.0000000000000000
  0.0000000000000000  0.0000000000000000  0.0000000000000000
  0.0000000000000000  0.0000000000000000  0.0000000000000000
  0.0000000000000000  0.0000000000000000  0.0000000000000000
  0.0000000000000000  0.0000000000000000  0.0000000000000000
  0.0000000000000000  0.0000000000000000  0.0000000000000000
  0.0000000000000000  0.0000000000000000  0.0000000000000000
  0.0000000000000000  0.0000000000000000  0.0000000000000000
  0.0000000000000000  0.0000000000000000  0.0000000000000000
  0.0000000000000000  0.0000000000000000  0.0000000000000000
  0.0000000000000000  0.0000000000000000  0.0000000000000000
  0.0000000000000000  0.0000000000000000  0.0000000000000000
  0.0000000000000000  0.0000000000000000  0.0000000000000000
