SYSTEM = pddmc T1.17 VASPsol (methanol implicit solvent)
ENCUT = 520
PREC = Accurate
LASPH = .TRUE.
ADDGRID = .TRUE.
ISPIN = 2
IVDW = 12
EDIFF = 1e-06
NELM = 500
NELMIN = 5
ALGO = Normal
NCORE = 1
LREAL = Auto
LWAVE = .FALSE.
LCHARG = .FALSE.
LORBIT = 11
ISYM = 0
IBRION = 2
NSW = 200
ISIF = 2
ISMEAR = 0
SIGMA = 0.05
EDIFFG = -0.03
LDIPOL = .TRUE.
IDIPOL = 3
KSPACING = 0.25

# ---- Fresh electronic start (L1 wrote LWAVE=.FALSE., no WAVECAR to restart)
ISTART = 0
ICHARG = 2

# ---- VASPsol (methanol implicit solvent) ----
# EB_K = static dielectric of methanol; TAU = 0 excludes cavitation term.
# Electrolyte screening tag intentionally not set — see README for rationale.
LSOL = .TRUE.
EB_K = 32.6
TAU = 0
