C  O  Pd
 1.0000000000000000
    12.2143708368485502    0.0000000000000000    0.0000000000000007
     0.0000000000000017   10.8116922467861709    0.0000000000000007
     0.0000000000000000    0.0000000000000000   30.6875744822424821
 C   O   Pd 
   1  65  64
Selective dynamics
Direct
  0.6307663946177305  1.0217387632206913  0.4737235100381052   T   T   T
  0.2513303399452539  0.6205210166117352  0.3961552999782307   T   T   T
  0.7500000000000000  0.3750000000000000  0.0986326357059468   F   F   F
  0.5011687536003513  0.6205436581773632  0.3969310482767817   T   T   T
  0.5013475589232943  0.8784577589211001  0.3973379507476575   T   T   T
  0.5008066144347524  0.6258232713360100  0.2992161269119692   T   T   T
  0.5012590520924214  0.8748623779489796  0.2991708403753919   T   T   T
  0.7508318935628734  0.3750740235372749  0.2989121287344141   T   T   T
  0.2510784395887143  0.1254706325916284  0.2988450611668980   T   T   T
  0.7513638630061286  0.6207266582478799  0.3968977089142990   T   T   T
  1.0024408921520547  0.8793280946921896  0.3966486820720867   T   T   T
  0.0000000000000000  0.6250000000000000  0.0986326357059468   F   F   F
  0.2508716214176605  0.3746982712853543  0.2988117058043505   T   T   T
  0.0022100418659165  0.1205598918651570  0.3965175140027134   T   T   T
  0.0000007785774361  0.8746366631057728  0.1990387117510663   F   F   F
  1.0013943598958814  0.3791950660608673  0.3968596237680216   T   T   T
  0.0000001489023768  0.6253641828117400  0.1990385236877962   F   F   F
  0.0009516070649136  0.8746943526148961  0.2988702965603983   T   T   T
  0.0008629249269048  0.1255330612219888  0.2988864271149548   T   T   T
  0.0009226152283822  0.6254703436372037  0.2988958543366020   T   T   T
  1.0008023154704371  0.3746689338657523  0.2988563993028182   T   T   T
  1.0014218500803829  0.6207440062587879  0.3967722228389011   T   T   T
  0.0000003667133454  0.1253639748692094  0.1990386316366852   F   F   F
  0.0000002712633380  0.3746360819220366  0.1990386009744299   F   F   F
  0.2500000000000000  0.3750000000000000  0.0986326357059468   F   F   F
 -0.0000000000000000  0.8750000000000001  0.0986326357059468   F   F   F
  0.2499998638177366  0.3746354513558036  0.1990391137478614   F   F   F
  0.2500000000000000  0.1250000000000000  0.0986326357059468   F   F   F
  0.2500003118916107  0.1253643742758414  0.1990388468832426   F   F   F
  0.0000000000000000  0.3750000000000000  0.0986326357059468   F   F   F
  0.0000000000000000  0.1250000000000000  0.0986326357059468   F   F   F
  0.7500000000000000  0.1250000000000000  0.0986326357059468   F   F   F
  0.7500004982174803  0.3746360905691121  0.1990382815073973   F   F   F
  0.6596177296094040  1.1071150965964212  0.4929552046590076   T   T   T
  0.7509351596111310  0.1254938241270372  0.2989967192647314   T   T   T
  0.5017882085664086  0.1218170389813395  0.3971615647552961   T   T   T
  0.5013649803531351  0.3793084441605548  0.3970777614599098   T   T   T
  0.5013424778759810  0.1256083291147391  0.2992062426315717   T   T   T
  0.5009583473229274  0.3744610964531940  0.2990602413428401   T   T   T
  0.4999998368048840  0.1253637532206347  0.1990388322615649   F   F   F
  0.4999999938080711  0.3746360868658646  0.1990385922315757   F   F   F
  0.5000000000000000  0.1250000000000000  0.0986326357059468   F   F   F
  0.5000000000000000  0.3750000000000000  0.0986326357059468   F   F   F
  0.7500000114023815  0.1253633646095497  0.1990386859845709   F   F   F
  0.2521429089630928  0.8794221858055087  0.3963378186079001   T   T   T
  0.2509154930919472  0.6255428784931831  0.2986873336906685   T   T   T
  0.2511068791119684  0.8751717033652791  0.2986912670818181   T   T   T
  0.2500000575081164  0.6253646356490544  0.1990388586176256   F   F   F
  0.2500000725690806  0.8746359244060554  0.1990388968624472   F   F   F
  0.2500000000000000  0.6250000000000000  0.0986326357059468   F   F   F
  0.7530823765402261  0.8786316201800837  0.3973279184314715   T   T   T
  0.2520685500446277  0.1207906541720972  0.3966360707068731   T   T   T
  0.2500000000000000  0.8750000000000001  0.0986326357059468   F   F   F
  0.2512027761790581  0.3794877063355315  0.3965468751390854   T   T   T
  0.7514779705308557  0.3793884608015578  0.3969441305027625   T   T   T
  0.7529980826640572  0.1217648657573437  0.3963066384145960   T   T   T
  0.7500000000000000  0.6250000000000000  0.0986326357059468   F   F   F
  0.7500002014178647  0.8746343896298040  0.1990386967425212   F   F   F
  0.7500000000000000  0.8750000000000001  0.0986326357059468   F   F   F
  0.7509978217884603  0.8746739412393278  0.2991295504425956   T   T   T
  0.7507460400717647  0.6258813941261521  0.2991006350596106   T   T   T
  0.5000001784867202  0.6253637522044813  0.1990389446145577   F   F   F
  0.4999995794704318  0.8746354974934157  0.1990386872989469   F   F   F
  0.5000000000000000  0.6250000000000000  0.0986326357059468   F   F   F
  0.5000000000000000  0.8750000000000001  0.0986326357059468   F   F   F
  0.7500002133337712  0.6253633161861426  0.1990388060063935   F   F   F
  0.2500002436688700  0.7499998371993483  0.1487767841964014   F   F   F
  0.5006727248623591  0.7502095678131848  0.2495093563619259   T   T   T
  0.1261694117589633  0.4999772790421967  0.3916200963527244   T   T   T
  0.6250000000000000  0.0000000000000000  0.0986326357059468   F   F   F
  0.5000000000000000  0.2500000000000000  0.0488797184302712   F   F   F
  0.2512193199440671  0.2500879281892779  0.3509122038804088   T   T   T
  0.2500000000000000  0.2500000000000000  0.0488797184302712   F   F   F
  0.2505274054349783  0.2500192901062082  0.2493243487835825   T   T   T
  0.2500000000000000  0.7500000000000000  0.0488797184302712   F   F   F
  0.3750000000000000  0.5000000000000000  0.0986326357059468   F   F   F
  0.3750013085010481  0.9999996425241101  0.1993178715196733   F   F   F
  0.3750004864510694  0.5000000253507203  0.1993181014519463   F   F   F
  0.3773132378488466  0.0000275839260396  0.3920912244948019   T   T   T
  0.0000000644614895  0.7499997055339565  0.1487767856559003   F   F   F
  0.0000000000000000  0.2500000000000000  0.0488797184302712   F   F   F
  0.1250005006673170  0.4999996619028680  0.1993179793341455   F   F   F
  0.6250000000000000  0.5000000000000000  0.0986326357059468   F   F   F
  0.5000000000000000  0.7500000000000000  0.0488797184302712   F   F   F
  0.0003523433450936  0.7500844893435211  0.2493636078354036   T   T   T
  0.6272748799443667  0.9999902954560651  0.3930667112453093   T   T   T
  0.5013828765894065  0.2503453252686006  0.3512324556392134   T   T   T
  0.1258797182953263  0.5000835484608783  0.2978710692674507   T   T   T
  0.6261393315664552  0.0001187853566001  0.2984409684154561   T   T   T
  0.5007988763042530  0.2498736032172097  0.2494395885323886   T   T   T
  1.0015829915316321  0.7499208443118422  0.3509988625310168   T   T   T
  0.6250011512513076  0.9999984342009582  0.1993176556340738   F   F   F
  0.5000000412290440  0.2500002002978380  0.1487764123606149   F   F   F
  0.1250000000000000  0.5000000000000000  0.0986326357059468   F   F   F
  0.2500001827845806  0.2500004790494265  0.1487770501254799   F   F   F
  0.5000000890861059  0.7499991063848873  0.1487764921061197   F   F   F
  0.2506156165337768  0.7502714293155043  0.2492542399691943   T   T   T
  0.1259277840733624  1.0002482799495638  0.2978487332128044   T   T   T
  0.3750000000000000  0.0000000000000000  0.0986326357059468   F   F   F
  0.8763374456911350  0.5000263930090307  0.3921529751901122   T   T   T
  0.0000000000000000  0.7500000000000000  0.0488797184302712   F   F   F
  0.7517379385959710  0.7501938586865583  0.3512931675101620   T   T   T
  0.1250000000000000  0.0000000000000000  0.0986326357059468   F   F   F
  0.7500000000000000  0.2500000000000000  0.0488797184302712   F   F   F
  0.8750000000000000  0.0000000000000000  0.0986326357059468   F   F   F
  0.8758235421172735  0.5003273721256652  0.2980210481371448   T   T   T
  0.1273294093809397  0.0000242275178161  0.3915939073691752   T   T   T
  0.7500000714258059  0.2500001333654533  0.1487767298788664   F   F   F
  0.8749990435797278  0.9999988729247118  0.1993176942245059   F   F   F
  0.7499999695802716  0.7499987873488344  0.1487766346932499   F   F   F
  0.1249992154568337  0.0000000621413549  0.1993179005561505   F   F   F
  0.7503406347444802  0.7502550588666950  0.2494397732684562   T   T   T
  0.7503261302255734  0.2499168285205491  0.2493786474185941   T   T   T
  0.8759990866359142  0.0000734765943903  0.2979878752925484   T   T   T
  0.0000001104490266  0.2500003692293262  0.1487770372582357   F   F   F
  0.7518413769952126  0.2510752506490140  0.3508408375444553   T   T   T
  0.5009452364552494  0.7502312738158899  0.3513468819035625   T   T   T
  0.8772935994386172  0.9998858136645982  0.3917993721887025   T   T   T
  0.0001955328783497  0.2499691002647141  0.2493434815530809   T   T   T
  0.8749998623887097  0.5000001886345932  0.1993177285951360   F   F   F
  0.7500000000000000  0.7500000000000000  0.0488797184302712   F   F   F
  0.8750000000000000  0.5000000000000000  0.0986326357059468   F   F   F
  1.0012461149467156  0.2501657190585453  0.3509794915284505   T   T   T
  0.3762171503373661  0.0003396377767206  0.2980426109334479   T   T   T
  0.6249997369785575  0.5000005243672183  0.1993177510521300   F   F   F
  0.6257617297210869  0.5003389797093882  0.2982539992737109   T   T   T
  0.3764308240422231  0.4998566626841373  0.3917261409658596   T   T   T
  0.2513759111827971  0.7502258741950651  0.3506309402183088   T   T   T
  0.3759584478142799  0.5001047378294320  0.2980172100256908   T   T   T
  0.6263881562296378  0.4999875097448809  0.3922174127879421   T   T   T
Cartesian
  0.0000000000000000  0.0000000000000000  0.0000000000000000
  0.0000000000000000  0.0000000000000000  0.0000000000000000
  0.0000000000000000  0.0000000000000000  0.0000000000000000
  0.0000000000000000  0.0000000000000000  0.0000000000000000
  0.0000000000000000  0.0000000000000000  0.0000000000000000
  0.0000000000000000  0.0000000000000000  0.0000000000000000
  0.0000000000000000  0.0000000000000000  0.0000000000000000
  0.0000000000000000  0.0000000000000000  0.0000000000000000
  0.0000000000000000  0.0000000000000000  0.0000000000000000
  0.0000000000000000  0.0000000000000000  0.0000000000000000
  0.0000000000000000  0.0000000000000000  0.0000000000000000
  0.0000000000000000  0.0000000000000000  0.0000000000000000
  0.0000000000000000  0.0000000000000000  0.0000000000000000
  0.0000000000000000  0.0000000000000000  0.0000000000000000
  0.0000000000000000  0.0000000000000000  0.0000000000000000
  0.0000000000000000  0.0000000000000000  0.0000000000000000
  0.0000000000000000  0.0000000000000000  0.0000000000000000
  0.0000000000000000  0.0000000000000000  0.0000000000000000
  0.0000000000000000  0.0000000000000000  0.0000000000000000
  0.0000000000000000  0.0000000000000000  0.0000000000000000
  0.0000000000000000  0.0000000000000000  0.0000000000000000
  0.0000000000000000  0.0000000000000000  0.0000000000000000
  0.0000000000000000  0.0000000000000000  0.0000000000000000
  0.0000000000000000  0.0000000000000000  0.0000000000000000
  0.0000000000000000  0.0000000000000000  0.0000000000000000
  0.0000000000000000  0.0000000000000000  0.0000000000000000
  0.0000000000000000  0.0000000000000000  0.0000000000000000
  0.0000000000000000  0.0000000000000000  0.0000000000000000
  0.0000000000000000  0.0000000000000000  0.0000000000000000
  0.0000000000000000  0.0000000000000000  0.0000000000000000
  0.0000000000000000  0.0000000000000000  0.0000000000000000
  0.0000000000000000  0.0000000000000000  0.0000000000000000
  0.0000000000000000  0.0000000000000000  0.0000000000000000
  0.0000000000000000  0.0000000000000000  0.0000000000000000
  0.0000000000000000  0.0000000000000000  0.0000000000000000
  0.0000000000000000  0.0000000000000000  0.0000000000000000
  0.0000000000000000  0.0000000000000000  0.0000000000000000
  0.0000000000000000  0.0000000000000000  0.0000000000000000
  0.0000000000000000  0.0000000000000000  0.0000000000000000
  0.0000000000000000  0.0000000000000000  0.0000000000000000
  0.0000000000000000  0.0000000000000000  0.0000000000000000
  0.0000000000000000  0.0000000000000000  0.0000000000000000
  0.0000000000000000  0.0000000000000000  0.0000000000000000
  0.0000000000000000  0.0000000000000000  0.0000000000000000
  0.0000000000000000  0.0000000000000000  0.0000000000000000
  0.0000000000000000  0.0000000000000000  0.0000000000000000
  0.0000000000000000  0.0000000000000000  0.0000000000000000
  0.0000000000000000  0.0000000000000000  0.0000000000000000
  0.0000000000000000  0.0000000000000000  0.0000000000000000
  0.0000000000000000  0.0000000000000000  0.0000000000000000
  0.0000000000000000  0.0000000000000000  0.0000000000000000
  0.0000000000000000  0.0000000000000000  0.0000000000000000
  0.0000000000000000  0.0000000000000000  0.0000000000000000
  0.0000000000000000  0.0000000000000000  0.0000000000000000
  0.0000000000000000  0.0000000000000000  0.0000000000000000
  0.0000000000000000  0.0000000000000000  0.0000000000000000
  0.0000000000000000  0.0000000000000000  0.0000000000000000
  0.0000000000000000  0.0000000000000000  0.0000000000000000
  0.0000000000000000  0.0000000000000000  0.0000000000000000
  0.0000000000000000  0.0000000000000000  0.0000000000000000
  0.0000000000000000  0.0000000000000000  0.0000000000000000
  0.0000000000000000  0.0000000000000000  0.0000000000000000
  0.0000000000000000  0.0000000000000000  0.0000000000000000
  0.0000000000000000  0.0000000000000000  0.0000000000000000
  0.0000000000000000  0.0000000000000000  0.0000000000000000
  0.0000000000000000  0.0000000000000000  0.0000000000000000
  0.0000000000000000  0.0000000000000000  0.0000000000000000
  0.0000000000000000  0.0000000000000000  0.0000000000000000
  0.0000000000000000  0.0000000000000000  0.0000000000000000
  0.0000000000000000  0.0000000000000000  0.0000000000000000
  0.0000000000000000  0.0000000000000000  0.0000000000000000
  0.0000000000000000  0.0000000000000000  0.0000000000000000
  0.0000000000000000  0.0000000000000000  0.0000000000000000
  0.0000000000000000  0.0000000000000000  0.0000000000000000
  0.0000000000000000  0.0000000000000000  0.0000000000000000
  0.0000000000000000  0.0000000000000000  0.0000000000000000
  0.0000000000000000  0.0000000000000000  0.0000000000000000
  0.0000000000000000  0.0000000000000000  0.0000000000000000
  0.0000000000000000  0.0000000000000000  0.0000000000000000
  0.0000000000000000  0.0000000000000000  0.0000000000000000
  0.0000000000000000  0.0000000000000000  0.0000000000000000
  0.0000000000000000  0.0000000000000000  0.0000000000000000
  0.0000000000000000  0.0000000000000000  0.0000000000000000
  0.0000000000000000  0.0000000000000000  0.0000000000000000
  0.0000000000000000  0.0000000000000000  0.0000000000000000
  0.0000000000000000  0.0000000000000000  0.0000000000000000
  0.0000000000000000  0.0000000000000000  0.0000000000000000
  0.0000000000000000  0.0000000000000000  0.0000000000000000
  0.0000000000000000  0.0000000000000000  0.0000000000000000
  0.0000000000000000  0.0000000000000000  0.0000000000000000
  0.0000000000000000  0.0000000000000000  0.0000000000000000
  0.0000000000000000  0.0000000000000000  0.0000000000000000
  0.0000000000000000  0.0000000000000000  0.0000000000000000
  0.0000000000000000  0.0000000000000000  0.0000000000000000
  0.0000000000000000  0.0000000000000000  0.0000000000000000
  0.0000000000000000  0.0000000000000000  0.0000000000000000
  0.0000000000000000  0.0000000000000000  0.0000000000000000
  0.0000000000000000  0.0000000000000000  0.0000000000000000
  0.0000000000000000  0.0000000000000000  0.0000000000000000
  0.0000000000000000  0.0000000000000000  0.0000000000000000
  0.0000000000000000  0.0000000000000000  0.0000000000000000
  0.0000000000000000  0.0000000000000000  0.0000000000000000
  0.0000000000000000  0.0000000000000000  0.0000000000000000
  0.0000000000000000  0.0000000000000000  0.0000000000000000
  0.0000000000000000  0.0000000000000000  0.0000000000000000
  0.0000000000000000  0.0000000000000000  0.0000000000000000
  0.0000000000000000  0.0000000000000000  0.0000000000000000
  0.0000000000000000  0.0000000000000000  0.0000000000000000
  0.0000000000000000  0.0000000000000000  0.0000000000000000
  0.0000000000000000  0.0000000000000000  0.0000000000000000
  0.0000000000000000  0.0000000000000000  0.0000000000000000
  0.0000000000000000  0.0000000000000000  0.0000000000000000
  0.0000000000000000  0.0000000000000000  0.0000000000000000
  0.0000000000000000  0.0000000000000000  0.0000000000000000
  0.0000000000000000  0.0000000000000000  0.0000000000000000
  0.0000000000000000  0.0000000000000000  0.0000000000000000
  0.0000000000000000  0.0000000000000000  0.0000000000000000
  0.0000000000000000  0.0000000000000000  0.0000000000000000
  0.0000000000000000  0.0000000000000000  0.0000000000000000
  0.0000000000000000  0.0000000000000000  0.0000000000000000
  0.0000000000000000  0.0000000000000000  0.0000000000000000
  0.0000000000000000  0.0000000000000000  0.0000000000000000
  0.0000000000000000  0.0000000000000000  0.0000000000000000
  0.0000000000000000  0.0000000000000000  0.0000000000000000
  0.0000000000000000  0.0000000000000000  0.0000000000000000
  0.0000000000000000  0.0000000000000000  0.0000000000000000
  0.0000000000000000  0.0000000000000000  0.0000000000000000
  0.0000000000000000  0.0000000000000000  0.0000000000000000
  0.0000000000000000  0.0000000000000000  0.0000000000000000
  0.0000000000000000  0.0000000000000000  0.0000000000000000
