C  H  O  Pd
 1.0000000000000000
     9.5317092920176041    0.0000000000000000    0.0000000000000000
     0.0000000000000000   12.8477517144159332    0.0000000000000000
     0.0000000000000000    0.0000000000000000   32.1028443220921673
 C   H   O   Pd 
   2   3  98  48
Selective dynamics
Direct
  0.5949545629289552  0.3151067651135763  0.4915224857179469   T   T   T
  0.7607601586586427  0.0545277725366214  0.4721970504454410   T   T   T
  0.8712278834907253  0.0739591082712208  0.4640039431532303   T   T   T
  0.7451339818748043 -0.0303429183720831  0.4648852892051703   T   T   T
  0.7430894522254249  0.0684714110814754  0.5058371777525241   T   T   T
  0.5000000000000000  0.7789897956032235  0.0851486940133555   F   F   F
  0.4999976639328576  0.5290466686199733  0.1895761637574985   F   F   F
  0.3338318449835128  0.1424902366867138  0.3238633851525661   T   T   T
  0.3355485871631506  0.1041769277364180  0.2476814546907519   T   T   T
  0.8353493553940616  0.0220531254746331  0.3807585281097655   T   T   T
  0.8333333333333357  0.2789897956032235  0.0851486940133555   F   F   F
  0.3340958139745266  0.8454038556817836  0.3490713047334094   T   T   T
  0.3352823314357581  0.8791726807078442  0.4261376032610694   T   T   T
  0.5014341426268601  0.7131089425207157  0.3989830682372136   T   T   T
  0.5033871695922351  0.5223468866904475  0.3919800296471251   T   T   T
  0.3338796371042072  0.6041272907610421  0.2476797281011648   T   T   T
  0.3344747052128903  0.6405920496710912  0.3243052950820360   T   T   T
  0.6398344578896787  0.3657966022428390  0.4638554921300740   T   T   T
  0.5004601779929279  0.7751548645743117  0.2778603372216881   T   T   T
  0.3333333333333357  0.8750000000000000  0.1467763379882641   F   F   F
  0.3333318648019943  0.8750000864356643  0.2250895420487288   F   F   F
  0.4999976377976332  0.7209531764862156  0.1895758217978223   F   F   F
  0.3333333333333357  0.6250000000000000  0.0467248317610185   F   F   F
  0.3333333333333357  0.6250000000000000  0.1235725562656853   F   F   F
  0.5000000000000000  0.9710102043967765  0.0851486940133555   F   F   F
  0.6688265008297397  0.8755598290056406  0.4258145830222175   T   T   T
  0.5007756879139815  0.9666380695703718  0.2959581026129803   T   T   T
  0.6684613752320062  0.3585314722800838  0.3515488078999127   T   T   T
  0.8333333333333357  0.7789897956032235  0.0851486940133555   F   F   F
  0.6615096645435010  0.1142637111676578  0.4509080005740783   T   T   T
  0.5513981448631680  0.2676863672228931  0.5200254684305505   T   T   T
  0.8349142071201723  0.7125787426485189  0.3987417031529160   T   T   T
  0.6672508063969526  0.6036227543694811  0.2475880075687387   T   T   T
  0.8327081512872011  0.5216387805112107  0.3922055709040816   T   T   T
  0.8333333333333357  0.4710102043967765  0.0851486940133555   F   F   F
  0.8333339558353259  0.0290462541212847  0.1895758119370538   F   F   F
  0.6666666666666643  0.1250000000000000  0.1235725562656853   F   F   F
  0.3333333333333357  0.3750000000000000  0.1467763379882641   F   F   F
  0.3348365409510309  0.3783606500036386  0.4254312692228979   T   T   T
  0.8336679759939903  0.9664076244362245  0.2961427384739257   T   T   T
  0.6675781995378889  0.6403911662221328  0.3241898351002922   T   T   T
  0.8333333409382341  0.7209531152421449  0.1895756052193645   F   F   F
  0.8339824469703551  0.7750417356396864  0.2780060620834681   T   T   T
  0.6666666666666643  0.8750000000000000  0.1467763379882641   F   F   F
  0.6666655358647100  0.8750000108504334  0.2250883423864175   F   F   F
  0.8333333008508301  0.5290468981117665  0.1895759154731361   F   F   F
  0.6666666666666643  0.6250000000000000  0.0467248317610185   F   F   F
  0.6666666666666643  0.6250000000000000  0.1235725562656853   F   F   F
  0.8333333333333357  0.9710102043967765  0.0851486940133555   F   F   F
  0.5019378296127489  0.2755883140887233  0.2783996672230345   T   T   T
  0.4983012607738011  0.2132770089141273  0.3981704081770582   T   T   T
  0.3315068567043098  0.3426423139896407  0.3479144876743675   T   T   T
  0.8390505564308488  0.2129520643467668  0.3982145367896228   T   T   T
  0.0000003549571299  0.8750000107713112  0.2250882234763902   F   F   F
  0.8352141358676451  0.4668987829934912  0.2973575358541356   T   T   T
  0.8335047225804373  0.2752180457834125  0.2784244918026488   T   T   T
  0.6666666666666643  0.3750000000000000  0.1467763379882641   F   F   F
  0.6666664721965994  0.3750001394610554  0.2250885421256194   F   F   F
  0.8333336160653568  0.2209531548581329  0.1895755782756444   F   F   F
  0.6666666666666643  0.1250000000000000  0.0467248317610185   F   F   F
  0.3333326882537072  0.3749997926392740  0.2250885499289598   F   F   F
  0.6675365535667324  0.8451167273770140  0.3488978911617348   T   T   T
  0.4999980417944865  0.0290462347966568  0.1895760715474884   F   F   F
  0.1675699281927948  0.4665252670393668  0.2964911957158710   T   T   T
  0.1666659623339084  0.7209538630219027  0.1895756713862576   F   F   F
  0.1666659175182925  0.5290462010831961  0.1895759780398522   F   F   F
  0.0000000000000000  0.6250000000000000  0.0467248317610185   F   F   F
  0.4999988243319552  0.2209529651499486  0.1895755725505499   F   F   F
  0.1666666666666643  0.9710102043967765  0.0851486940133555   F   F   F
  0.5016892280219266  0.0218884844719208  0.3793422895121819   T   T   T
  0.1666666666666643  0.7789897956032235  0.0851486940133555   F   F   F
  0.0064992558092874  0.3413757310592556  0.3478355257761182   T   T   T
  1.0027325544357575  0.3770134360278700  0.4253486014244131   T   T   T
  0.1687689652340475  0.2107693361501610  0.3995534946753104   T   T   T
  0.1686596976294407  0.0217769930491290  0.3888836967518396   T   T   T
  0.9991444873278867  0.1039152417089165  0.2476513899836600   T   T   T
  0.1677929901404644  0.2750592118949586  0.2768554784514231   T   T   T
  0.5005730148853846  0.4671550988233507  0.2971952231584756   T   T   T
  0.1674606413265788  0.9668380366283370  0.2968779139314665   T   T   T
  0.0000000000000000  0.3750000000000000  0.1467763379882641   F   F   F
  0.1666663400494306  0.0290460185855896  0.1895759024921872   F   F   F
  0.0000007107164886  0.3749999603060230  0.2250885125878732   F   F   F
  0.6675295114934697  0.1450904687988491  0.3256799244220293   T   T   T
  0.6671582379889226  0.1033337633148343  0.2479469876086138   T   T   T
  0.0013778927173700  0.1407714459891541  0.3237177397028836   T   T   T
  0.0000000000000000  0.1250000000000000  0.0467248317610185   F   F   F
  0.0000000000000000  0.1250000000000000  0.1235725562656853   F   F   F
  0.1666666666666643  0.4710102043967765  0.0851486940133555   F   F   F
  0.1666666666666643  0.2789897956032235  0.0851486940133555   F   F   F
  0.0000000000000000  0.8750000000000000  0.1467763379882641   F   F   F
  0.1666663027958614  0.2209539505437224  0.1895756072453514   F   F   F
  0.0000000000000000  0.6250000000000000  0.1235725562656853   F   F   F
  0.3333333333333357  0.1250000000000000  0.0467248317610185   F   F   F
  0.1682742644135184  0.5224752809025276  0.3892958284482267   T   T   T
  0.5000000000000000  0.2789897956032235  0.0851486940133555   F   F   F
  0.1680555231988053  0.7120470676576776  0.3984481509280024   T   T   T
  1.0002699412743408  0.8790172133375970  0.4259669306693246   T   T   T
  0.3333333333333357  0.1250000000000000  0.1235725562656853   F   F   F
  1.0006708624778056  0.6039648173872900  0.2476504330434788   T   T   T
  0.5000000000000000  0.4710102043967765  0.0851486940133555   F   F   F
  0.0005360623097852  0.6407988814078733  0.3243474162710557   T   T   T
  0.0022549805809018  0.8456853348344355  0.3488829841002991   T   T   T
  0.1673798377275881  0.7751527970563167  0.2780580742377846   T   T   T
  0.6671983960297205  0.8702460584672813  0.2876927640950802   T   T   T
  0.8342208725017427  0.6206964843298344  0.2858359173011977   T   T   T
  0.8333333333333357  0.6250000000000000  0.0851486940133555   F   F   F
  0.1675765081046100  0.1205677635797416  0.2853616318030497   T   T   T
  0.3350466793077231  0.1176523253265831  0.3853330111159379   T   T   T
  0.1666666847735583  0.3750001305958783  0.1858643915636921   F   F   F
  0.3338227416653239  0.8704731198328026  0.2877053300755467   T   T   T
  0.5000014304295636  0.3749999974283293  0.1858644222348644   F   F   F
  0.0000000000000000  0.3750000000000000  0.0851486940133555   F   F   F
  0.5020674257070761  0.1212720181786542  0.2864738618049315   T   T   T
  0.8352197013456424  0.8671295895846824  0.3876094681636578   T   T   T
  0.6681397947364339  0.6200167032583163  0.3860633563810231   T   T   T
  0.3333354546060130  0.1249999476819220  0.1847578122735502   F   F   F
  0.9999970987911158  0.1250000184490408  0.1847578466783704   F   F   F
  0.3333333333333357  0.3750000000000000  0.0851486940133555   F   F   F
  0.1685439209898651  0.3658607883864142  0.3876680468021699   T   T   T
  0.1666666666666643  0.1250000000000000  0.0851486940133555   F   F   F
  0.6666666666666643  0.8750000000000000  0.0851486940133555   F   F   F
  0.3342247221710787  0.3706306757503977  0.2872036245244872   T   T   T
  0.6666655568862668  0.6249997720375131  0.1847577838516319   F   F   F
  1.0030570338809799  0.1177425739011768  0.3852177767329347   T   T   T
  0.4955113461964231  0.3677001719822832  0.3868592376009520   T   T   T
  0.5000005790671146  0.8749996008049955  0.1858647103970161   F   F   F
  0.5009727705282156  0.8678850734112287  0.3879629742692475   T   T   T
  0.3356328684137764  0.6189778612460520  0.3861450761041056   T   T   T
  0.1681274883083865  0.8665775868199270  0.3878949614562530   T   T   T
  0.3333348655297959  0.6249998188937667  0.1847577531331055   F   F   F
  0.8333333333333357  0.1250000000000000  0.0851486940133555   F   F   F
  0.6666666666666643  0.3750000000000000  0.0851486940133555   F   F   F
  0.1666668975657561  0.8749998441626324  0.1858646099702742   F   F   F
  1.0007467382479669  0.6184973214590016  0.3861853426855544   T   T   T
  0.6686400062683346  0.1175905214634833  0.3885369228839411   T   T   T
  0.6666662687465629  0.1249996349829204  0.1847578301666214   F   F   F
  0.8333311666192106  0.8749995704976669  0.1858642171120021   F   F   F
  0.0000000000000000  0.8750000000000000  0.0851486940133555   F   F   F
  0.8327360185579062  0.1209425015999660  0.2864243148295918   T   T   T
  0.6678983840719114  0.3709468927528166  0.2882732964374174   T   T   T
  0.3333333333333357  0.8750000000000000  0.0851486940133555   F   F   F
  0.5000000000000000  0.6250000000000000  0.0851486940133555   F   F   F
  0.5007325236095034  0.6209364278606345  0.2858265842368219   T   T   T
  0.1673638979445351  0.6208580655708820  0.2859428272224147   T   T   T
  0.8333316115610666  0.3750001538755701  0.1858644410325545   F   F   F
  1.0008257781395204  0.8704013822013387  0.2876649760215192   T   T   T
  1.0014249933464439  0.3702462391969784  0.2871991328806592   T   T   T
  0.8414164871889049  0.3670970933576134  0.3869944330776075   T   T   T
  0.5000000000000000  0.1250000000000000  0.0851486940133555   F   F   F
  0.1666666666666643  0.6250000000000000  0.0851486940133555   F   F   F
  0.9999968754065039  0.6249998164331720  0.1847577848474051   F   F   F
Cartesian
  0.0000000000000000  0.0000000000000000  0.0000000000000000
  0.0000000000000000  0.0000000000000000  0.0000000000000000
  0.0000000000000000  0.0000000000000000  0.0000000000000000
  0.0000000000000000  0.0000000000000000  0.0000000000000000
  0.0000000000000000  0.0000000000000000  0.0000000000000000
  0.0000000000000000  0.0000000000000000  0.0000000000000000
  0.0000000000000000  0.0000000000000000  0.0000000000000000
  0.0000000000000000  0.0000000000000000  0.0000000000000000
  0.0000000000000000  0.0000000000000000  0.0000000000000000
  0.0000000000000000  0.0000000000000000  0.0000000000000000
  0.0000000000000000  0.0000000000000000  0.0000000000000000
  0.0000000000000000  0.0000000000000000  0.0000000000000000
  0.0000000000000000  0.0000000000000000  0.0000000000000000
  0.0000000000000000  0.0000000000000000  0.0000000000000000
  0.0000000000000000  0.0000000000000000  0.0000000000000000
  0.0000000000000000  0.0000000000000000  0.0000000000000000
  0.0000000000000000  0.0000000000000000  0.0000000000000000
  0.0000000000000000  0.0000000000000000  0.0000000000000000
  0.0000000000000000  0.0000000000000000  0.0000000000000000
  0.0000000000000000  0.0000000000000000  0.0000000000000000
  0.0000000000000000  0.0000000000000000  0.0000000000000000
  0.0000000000000000  0.0000000000000000  0.0000000000000000
  0.0000000000000000  0.0000000000000000  0.0000000000000000
  0.0000000000000000  0.0000000000000000  0.0000000000000000
  0.0000000000000000  0.0000000000000000  0.0000000000000000
  0.0000000000000000  0.0000000000000000  0.0000000000000000
  0.0000000000000000  0.0000000000000000  0.0000000000000000
  0.0000000000000000  0.0000000000000000  0.0000000000000000
  0.0000000000000000  0.0000000000000000  0.0000000000000000
  0.0000000000000000  0.0000000000000000  0.0000000000000000
  0.0000000000000000  0.0000000000000000  0.0000000000000000
  0.0000000000000000  0.0000000000000000  0.0000000000000000
  0.0000000000000000  0.0000000000000000  0.0000000000000000
  0.0000000000000000  0.0000000000000000  0.0000000000000000
  0.0000000000000000  0.0000000000000000  0.0000000000000000
  0.0000000000000000  0.0000000000000000  0.0000000000000000
  0.0000000000000000  0.0000000000000000  0.0000000000000000
  0.0000000000000000  0.0000000000000000  0.0000000000000000
  0.0000000000000000  0.0000000000000000  0.0000000000000000
  0.0000000000000000  0.0000000000000000  0.0000000000000000
  0.0000000000000000  0.0000000000000000  0.0000000000000000
  0.0000000000000000  0.0000000000000000  0.0000000000000000
  0.0000000000000000  0.0000000000000000  0.0000000000000000
  0.0000000000000000  0.0000000000000000  0.0000000000000000
  0.0000000000000000  0.0000000000000000  0.0000000000000000
  0.0000000000000000  0.0000000000000000  0.0000000000000000
  0.0000000000000000  0.0000000000000000  0.0000000000000000
  0.0000000000000000  0.0000000000000000  0.0000000000000000
  0.0000000000000000  0.0000000000000000  0.0000000000000000
  0.0000000000000000  0.0000000000000000  0.0000000000000000
  0.0000000000000000  0.0000000000000000  0.0000000000000000
  0.0000000000000000  0.0000000000000000  0.0000000000000000
  0.0000000000000000  0.0000000000000000  0.0000000000000000
  0.0000000000000000  0.0000000000000000  0.0000000000000000
  0.0000000000000000  0.0000000000000000  0.0000000000000000
  0.0000000000000000  0.0000000000000000  0.0000000000000000
  0.0000000000000000  0.0000000000000000  0.0000000000000000
  0.0000000000000000  0.0000000000000000  0.0000000000000000
  0.0000000000000000  0.0000000000000000  0.0000000000000000
  0.0000000000000000  0.0000000000000000  0.0000000000000000
  0.0000000000000000  0.0000000000000000  0.0000000000000000
  0.0000000000000000  0.0000000000000000  0.0000000000000000
  0.0000000000000000  0.0000000000000000  0.0000000000000000
  0.0000000000000000  0.0000000000000000  0.0000000000000000
  0.0000000000000000  0.0000000000000000  0.0000000000000000
  0.0000000000000000  0.0000000000000000  0.0000000000000000
  0.0000000000000000  0.0000000000000000  0.0000000000000000
  0.0000000000000000  0.0000000000000000  0.0000000000000000
  0.0000000000000000  0.0000000000000000  0.0000000000000000
  0.0000000000000000  0.0000000000000000  0.0000000000000000
  0.0000000000000000  0.0000000000000000  0.0000000000000000
  0.0000000000000000  0.0000000000000000  0.0000000000000000
  0.0000000000000000  0.0000000000000000  0.0000000000000000
  0.0000000000000000  0.0000000000000000  0.0000000000000000
  0.0000000000000000  0.0000000000000000  0.0000000000000000
  0.0000000000000000  0.0000000000000000  0.0000000000000000
  0.0000000000000000  0.0000000000000000  0.0000000000000000
  0.0000000000000000  0.0000000000000000  0.0000000000000000
  0.0000000000000000  0.0000000000000000  0.0000000000000000
  0.0000000000000000  0.0000000000000000  0.0000000000000000
  0.0000000000000000  0.0000000000000000  0.0000000000000000
  0.0000000000000000  0.0000000000000000  0.0000000000000000
  0.0000000000000000  0.0000000000000000  0.0000000000000000
  0.0000000000000000  0.0000000000000000  0.0000000000000000
  0.0000000000000000  0.0000000000000000  0.0000000000000000
  0.0000000000000000  0.0000000000000000  0.0000000000000000
  0.0000000000000000  0.0000000000000000  0.0000000000000000
  0.0000000000000000  0.0000000000000000  0.0000000000000000
  0.0000000000000000  0.0000000000000000  0.0000000000000000
  0.0000000000000000  0.0000000000000000  0.0000000000000000
  0.0000000000000000  0.0000000000000000  0.0000000000000000
  0.0000000000000000  0.0000000000000000  0.0000000000000000
  0.0000000000000000  0.0000000000000000  0.0000000000000000
  0.0000000000000000  0.0000000000000000  0.0000000000000000
  0.0000000000000000  0.0000000000000000  0.0000000000000000
  0.0000000000000000  0.0000000000000000  0.0000000000000000
  0.0000000000000000  0.0000000000000000  0.0000000000000000
  0.0000000000000000  0.0000000000000000  0.0000000000000000
  0.0000000000000000  0.0000000000000000  0.0000000000000000
  0.0000000000000000  0.0000000000000000  0.0000000000000000
  0.0000000000000000  0.0000000000000000  0.0000000000000000
  0.0000000000000000  0.0000000000000000  0.0000000000000000
  0.0000000000000000  0.0000000000000000  0.0000000000000000
  0.0000000000000000  0.0000000000000000  0.0000000000000000
  0.0000000000000000  0.0000000000000000  0.0000000000000000
  0.0000000000000000  0.0000000000000000  0.0000000000000000
  0.0000000000000000  0.0000000000000000  0.0000000000000000
  0.0000000000000000  0.0000000000000000  0.0000000000000000
  0.0000000000000000  0.0000000000000000  0.0000000000000000
  0.0000000000000000  0.0000000000000000  0.0000000000000000
  0.0000000000000000  0.0000000000000000  0.0000000000000000
  0.0000000000000000  0.0000000000000000  0.0000000000000000
  0.0000000000000000  0.0000000000000000  0.0000000000000000
  0.0000000000000000  0.0000000000000000  0.0000000000000000
  0.0000000000000000  0.0000000000000000  0.0000000000000000
  0.0000000000000000  0.0000000000000000  0.0000000000000000
  0.0000000000000000  0.0000000000000000  0.0000000000000000
  0.0000000000000000  0.0000000000000000  0.0000000000000000
  0.0000000000000000  0.0000000000000000  0.0000000000000000
  0.0000000000000000  0.0000000000000000  0.0000000000000000
  0.0000000000000000  0.0000000000000000  0.0000000000000000
  0.0000000000000000  0.0000000000000000  0.0000000000000000
  0.0000000000000000  0.0000000000000000  0.0000000000000000
  0.0000000000000000  0.0000000000000000  0.0000000000000000
  0.0000000000000000  0.0000000000000000  0.0000000000000000
  0.0000000000000000  0.0000000000000000  0.0000000000000000
  0.0000000000000000  0.0000000000000000  0.0000000000000000
  0.0000000000000000  0.0000000000000000  0.0000000000000000
  0.0000000000000000  0.0000000000000000  0.0000000000000000
  0.0000000000000000  0.0000000000000000  0.0000000000000000
  0.0000000000000000  0.0000000000000000  0.0000000000000000
  0.0000000000000000  0.0000000000000000  0.0000000000000000
  0.0000000000000000  0.0000000000000000  0.0000000000000000
  0.0000000000000000  0.0000000000000000  0.0000000000000000
  0.0000000000000000  0.0000000000000000  0.0000000000000000
  0.0000000000000000  0.0000000000000000  0.0000000000000000
  0.0000000000000000  0.0000000000000000  0.0000000000000000
  0.0000000000000000  0.0000000000000000  0.0000000000000000
  0.0000000000000000  0.0000000000000000  0.0000000000000000
  0.0000000000000000  0.0000000000000000  0.0000000000000000
  0.0000000000000000  0.0000000000000000  0.0000000000000000
  0.0000000000000000  0.0000000000000000  0.0000000000000000
  0.0000000000000000  0.0000000000000000  0.0000000000000000
  0.0000000000000000  0.0000000000000000  0.0000000000000000
  0.0000000000000000  0.0000000000000000  0.0000000000000000
  0.0000000000000000  0.0000000000000000  0.0000000000000000
  0.0000000000000000  0.0000000000000000  0.0000000000000000
  0.0000000000000000  0.0000000000000000  0.0000000000000000
  0.0000000000000000  0.0000000000000000  0.0000000000000000
  0.0000000000000000  0.0000000000000000  0.0000000000000000
  0.0000000000000000  0.0000000000000000  0.0000000000000000
