C  H  O  Pd
 1.0000000000000000
     9.5317092920176041    0.0000000000000000    0.0000000000000000
     0.0000000000000000   12.8477517144159332    0.0000000000000000
     0.0000000000000000    0.0000000000000000   32.1028443220921673
 C   H   O   Pd 
   2   3  98  48
Selective dynamics
Direct
  0.3527724847482257  0.4248215235929530  0.4944125502903847   T   T   T
  0.2453148298045752  0.6910658859988721  0.4730314046541765   T   T   T
  0.1361515653233700  0.6636917129071050  0.4674686156034565   T   T   T
  0.2508604733837064  0.7757162696310934  0.4647797053847219   T   T   T
  0.2718814644388446  0.6800680941108056  0.5063155127619181   T   T   T
  0.5000000000000000  0.7789897956032235  0.0851486940133555   F   F   F
  0.4999976639328576  0.5290466686199733  0.1895761637574985   F   F   F
  0.3333388471119000  0.1086962741456498  0.3239598245634545   T   T   T
  0.3332730039586503  0.1462354732817088  0.2475364740794430   T   T   T
  0.8333441531415047  0.0367033372443778  0.3981712799605393   T   T   T
  0.8333333333333357  0.2789897956032235  0.0851486940133555   F   F   F
  0.3331693924467016  0.9036227351405219  0.3488414969148152   T   T   T
  0.3322139308841983  0.8721440206882045  0.4255047897863232   T   T   T
  0.4998569084625956  0.7266832483053610  0.3785676733967234   T   T   T
  0.5035665915460348  0.5350861961256235  0.3980698924550649   T   T   T
  0.3331199815498813  0.6466248475545014  0.2480268767016713   T   T   T
  0.3328641626401038  0.6039340471961332  0.3257170977856596   T   T   T
  0.6667915944659563  0.3702851136559787  0.4253769645848547   T   T   T
  0.4995194019917208  0.7829804828664566  0.2957047245920660   T   T   T
  0.3333333333333357  0.8750000000000000  0.1467763379882641   F   F   F
  0.3333318648019943  0.8750000864356643  0.2250895420487288   F   F   F
  0.4999976377976332  0.7209531764862156  0.1895758217978223   F   F   F
  0.3333333333333357  0.6250000000000000  0.0467248317610185   F   F   F
  0.3333333333333357  0.6250000000000000  0.1235725562656853   F   F   F
  0.5000000000000000  0.9710102043967765  0.0851486940133555   F   F   F
  0.6661938007218224  0.8684105672321896  0.4258630982376870   T   T   T
  0.5000519979677921  0.9741690074819407  0.2778769952857252   T   T   T
  0.6702342584758781  0.4063801802995052  0.3478961339625822   T   T   T
  0.8333333333333357  0.7789897956032235  0.0851486940133555   F   F   F
  0.3462088228034086  0.6343622800035769  0.4507702548287507   T   T   T
  0.3622391725894750  0.4707276482955167  0.5259482290797057   T   T   T
  0.8327501796958434  0.7265614515228618  0.3884913138447736   T   T   T
  0.6648745252922528  0.6456770862308376  0.2477559354528443   T   T   T
  0.8327779217791447  0.5376737371910095  0.3995593998702105   T   T   T
  0.8333333333333357  0.4710102043967765  0.0851486940133555   F   F   F
  0.8333339558353259  0.0290462541212847  0.1895758119370538   F   F   F
  0.6666666666666643  0.1250000000000000  0.1235725562656853   F   F   F
  0.3333333333333357  0.3750000000000000  0.1467763379882641   F   F   F
  0.3426778567640501  0.3760609975642655  0.4633900242042950   T   T   T
  0.8332393813855008  0.9739767392031884  0.2780313848063421   T   T   T
  0.6667825120374885  0.6068083522433086  0.3237874541337669   T   T   T
  0.8333333409382341  0.7209531152421449  0.1895756052193645   F   F   F
  0.8331595604498317  0.7823389991046564  0.2970111339521414   T   T   T
  0.6666666666666643  0.8750000000000000  0.1467763379882641   F   F   F
  0.6666655358647100  0.8750000108504334  0.2250883423864175   F   F   F
  0.8333333008508301  0.5290468981117665  0.1895759154731361   F   F   F
  0.6666666666666643  0.6250000000000000  0.0467248317610185   F   F   F
  0.6666666666666643  0.6250000000000000  0.1235725562656853   F   F   F
  0.8333333333333357  0.9710102043967765  0.0851486940133555   F   F   F
  0.5005601455907279  0.2821744146977377  0.2972591265594609   T   T   T
  0.4979706711372209  0.2262306473826434  0.3918155939423184   T   T   T
  0.3331418673561984  0.3907247420890989  0.3515000515317205   T   T   T
  0.8330138372682216  0.2260863350903128  0.3888822311993593   T   T   T
  0.0000003549571299  0.8750000107713112  0.2250882234763902   F   F   F
  0.8331575293356127  0.4742330184563837  0.2770093154981057   T   T   T
  0.8332689568004314  0.2827997819165500  0.2962431847706036   T   T   T
  0.6666666666666643  0.3750000000000000  0.1467763379882641   F   F   F
  0.6666664721965994  0.3750001394610554  0.2250885421256194   F   F   F
  0.8333336160653568  0.2209531548581329  0.1895755782756444   F   F   F
  0.6666666666666643  0.1250000000000000  0.0467248317610185   F   F   F
  0.3333326882537072  0.3749997926392740  0.2250885499289598   F   F   F
  0.6671389893755379  0.9033959268024426  0.3489722458421027   T   T   T
  0.4999980417944865  0.0290462347966568  0.1895760715474884   F   F   F
  0.1673944605906994  0.4739109803336882  0.2784019330055436   T   T   T
  0.1666659623339084  0.7209538630219027  0.1895756713862576   F   F   F
  0.1666659175182925  0.5290462010831961  0.1895759780398522   F   F   F
  0.0000000000000000  0.6250000000000000  0.0467248317610185   F   F   F
  0.4999988243319552  0.2209529651499486  0.1895755725505499   F   F   F
  0.1666666666666643  0.9710102043967765  0.0851486940133555   F   F   F
  0.5002252779369397  0.0353221332952979  0.3987964768481282   T   T   T
  0.1666666666666643  0.7789897956032235  0.0851486940133555   F   F   F
 -0.0044908984333436  0.4068231972931528  0.3479080497108764   T   T   T
  0.9992015954973518  0.3703362125066865  0.4253935179869324   T   T   T
  0.1686897468808468  0.2263858698924462  0.3919878841514493   T   T   T
  0.1662133888792932  0.0355883900542227  0.3986334913377249   T   T   T
  0.9999859560376283  0.1453724936311460  0.2476096784185137   T   T   T
  0.1658446126239478  0.2822418260850272  0.2973085234167036   T   T   T
  0.4988980414996521  0.4738499288901473  0.2785271965793125   T   T   T
  0.1664121006080244  0.9741393571362296  0.2778882382346801   T   T   T
  0.0000000000000000  0.3750000000000000  0.1467763379882641   F   F   F
  0.1666663400494306  0.0290460185855896  0.1895759024921872   F   F   F
  0.0000007107164886  0.3749999603060230  0.2250885125878732   F   F   F
  0.6663600796014643  0.1081191716858987  0.3241407193746080   T   T   T
  0.6666880240150861  0.1454575229320050  0.2475836964872191   T   T   T
  0.0002834958490798  0.1084041351055509  0.3242167259051487   T   T   T
  0.0000000000000000  0.1250000000000000  0.0467248317610185   F   F   F
  0.0000000000000000  0.1250000000000000  0.1235725562656853   F   F   F
  0.1666666666666643  0.4710102043967765  0.0851486940133555   F   F   F
  0.1666666666666643  0.2789897956032235  0.0851486940133555   F   F   F
  0.0000000000000000  0.8750000000000000  0.1467763379882641   F   F   F
  0.1666663027958614  0.2209539505437224  0.1895756072453514   F   F   F
  0.0000000000000000  0.6250000000000000  0.1235725562656853   F   F   F
  0.3333333333333357  0.1250000000000000  0.0467248317610185   F   F   F
  0.1628147186680956  0.5353896680034572  0.3985534956228818   T   T   T
  0.5000000000000000  0.2789897956032235  0.0851486940133555   F   F   F
  0.1660332486854336  0.7261126417019944  0.3811103292905720   T   T   T
  1.0005813281263627  0.8694760944945152  0.4259527897929039   T   T   T
  0.3333333333333357  0.1250000000000000  0.1235725562656853   F   F   F
  1.0012530972768590  0.6458018556661103  0.2477756248849636   T   T   T
  0.5000000000000000  0.4710102043967765  0.0851486940133555   F   F   F
 -0.0006068427410054  0.6071779206746361  0.3238011082844324   T   T   T
 -0.0012020930750138  0.9032273922455444  0.3488382080872146   T   T   T
  0.1668398398772522  0.7828050095019915  0.2962808359556425   T   T   T
  0.6667831151055353  0.8787576125482727  0.2876459288461435   T   T   T
  0.8330887527521542  0.6285661222886303  0.2854708729335275   T   T   T
  0.8333333333333357  0.6250000000000000  0.0851486940133555   F   F   F
  0.1665513115323720  0.1284491882884660  0.2857453933429019   T   T   T
  0.3333577588031443  0.1283569525816636  0.3858912828272029   T   T   T
  0.1666666847735583  0.3750001305958783  0.1858643915636921   F   F   F
  0.3330882788742005  0.8790997751451980  0.2876495882334952   T   T   T
  0.5000014304295636  0.3749999974283293  0.1858644222348644   F   F   F
  0.0000000000000000  0.3750000000000000  0.0851486940133555   F   F   F
  0.5000450129665005  0.1283835811174526  0.2856971274285114   T   T   T
  0.8332450895811964  0.8817911790003211  0.3878178074733651   T   T   T
  0.6662928184865223  0.6307917291267594  0.3852424551243500   T   T   T
  0.3333354546060130  0.1249999476819220  0.1847578122735502   F   F   F
  0.9999970987911158  0.1250000184490408  0.1847578466783704   F   F   F
  0.3333333333333357  0.3750000000000000  0.0851486940133555   F   F   F
  0.1601872208928429  0.3810068701113047  0.3870045948485246   T   T   T
  0.1666666666666643  0.1250000000000000  0.0851486940133555   F   F   F
  0.6666666666666643  0.8750000000000000  0.0851486940133555   F   F   F
  0.3331566580661284  0.3782607236416365  0.2882662624662445   T   T   T
  0.6666655568862668  0.6249997720375131  0.1847577838516319   F   F   F
  1.0006337155969915  0.1298770026851334  0.3859810035272211   T   T   T
  0.5062805083867249  0.3808019066046426  0.3867910820107722   T   T   T
  0.5000005790671146  0.8749996008049955  0.1858647103970161   F   F   F
  0.5002308503049114  0.8803676840962789  0.3877890305961511   T   T   T
  0.3334653885606236  0.6308696987744093  0.3885722919312401   T   T   T
  0.1658160898769685  0.8811836272917887  0.3875465284390907   T   T   T
  0.3333348655297959  0.6249998188937667  0.1847577531331055   F   F   F
  0.8333333333333357  0.1250000000000000  0.0851486940133555   F   F   F
  0.6666666666666643  0.3750000000000000  0.0851486940133555   F   F   F
  0.1666668975657561  0.8749998441626324  0.1858646099702742   F   F   F
  0.9985846339557762  0.6305110916291112  0.3852848257003869   T   T   T
  0.6657792685845211  0.1296238265011218  0.3859173545604743   T   T   T
  0.6666662687465629  0.1249996349829204  0.1847578301666214   F   F   F
  0.8333311666192106  0.8749995704976669  0.1858642171120021   F   F   F
  0.0000000000000000  0.8750000000000000  0.0851486940133555   F   F   F
  0.8333188584734811  0.1283107712384755  0.2858428378962939   T   T   T
  0.6666444884464292  0.3788278035720271  0.2871537885467766   T   T   T
  0.3333333333333357  0.8750000000000000  0.0851486940133555   F   F   F
  0.5000000000000000  0.6250000000000000  0.0851486940133555   F   F   F
  0.4983346973960147  0.6281806638058355  0.2865244539059502   T   T   T
  0.1676930406475725  0.6281789878664890  0.2865135927886571   T   T   T
  0.8333316115610666  0.3750001538755701  0.1858644410325545   F   F   F
  0.9996986715585988  0.8786431413359184  0.2876121587019490   T   T   T
  0.9996982382243329  0.3789285277183610  0.2871835183219520   T   T   T
  0.8330903982467183  0.3826886118960018  0.3877399611764604   T   T   T
  0.5000000000000000  0.1250000000000000  0.0851486940133555   F   F   F
  0.1666666666666643  0.6250000000000000  0.0851486940133555   F   F   F
  0.9999968754065039  0.6249998164331720  0.1847577848474051   F   F   F
Cartesian
  0.0000000000000000  0.0000000000000000  0.0000000000000000
  0.0000000000000000  0.0000000000000000  0.0000000000000000
  0.0000000000000000  0.0000000000000000  0.0000000000000000
  0.0000000000000000  0.0000000000000000  0.0000000000000000
  0.0000000000000000  0.0000000000000000  0.0000000000000000
  0.0000000000000000  0.0000000000000000  0.0000000000000000
  0.0000000000000000  0.0000000000000000  0.0000000000000000
  0.0000000000000000  0.0000000000000000  0.0000000000000000
  0.0000000000000000  0.0000000000000000  0.0000000000000000
  0.0000000000000000  0.0000000000000000  0.0000000000000000
  0.0000000000000000  0.0000000000000000  0.0000000000000000
  0.0000000000000000  0.0000000000000000  0.0000000000000000
  0.0000000000000000  0.0000000000000000  0.0000000000000000
  0.0000000000000000  0.0000000000000000  0.0000000000000000
  0.0000000000000000  0.0000000000000000  0.0000000000000000
  0.0000000000000000  0.0000000000000000  0.0000000000000000
  0.0000000000000000  0.0000000000000000  0.0000000000000000
  0.0000000000000000  0.0000000000000000  0.0000000000000000
  0.0000000000000000  0.0000000000000000  0.0000000000000000
  0.0000000000000000  0.0000000000000000  0.0000000000000000
  0.0000000000000000  0.0000000000000000  0.0000000000000000
  0.0000000000000000  0.0000000000000000  0.0000000000000000
  0.0000000000000000  0.0000000000000000  0.0000000000000000
  0.0000000000000000  0.0000000000000000  0.0000000000000000
  0.0000000000000000  0.0000000000000000  0.0000000000000000
  0.0000000000000000  0.0000000000000000  0.0000000000000000
  0.0000000000000000  0.0000000000000000  0.0000000000000000
  0.0000000000000000  0.0000000000000000  0.0000000000000000
  0.0000000000000000  0.0000000000000000  0.0000000000000000
  0.0000000000000000  0.0000000000000000  0.0000000000000000
  0.0000000000000000  0.0000000000000000  0.0000000000000000
  0.0000000000000000  0.0000000000000000  0.0000000000000000
  0.0000000000000000  0.0000000000000000  0.0000000000000000
  0.0000000000000000  0.0000000000000000  0.0000000000000000
  0.0000000000000000  0.0000000000000000  0.0000000000000000
  0.0000000000000000  0.0000000000000000  0.0000000000000000
  0.0000000000000000  0.0000000000000000  0.0000000000000000
  0.0000000000000000  0.0000000000000000  0.0000000000000000
  0.0000000000000000  0.0000000000000000  0.0000000000000000
  0.0000000000000000  0.0000000000000000  0.0000000000000000
  0.0000000000000000  0.0000000000000000  0.0000000000000000
  0.0000000000000000  0.0000000000000000  0.0000000000000000
  0.0000000000000000  0.0000000000000000  0.0000000000000000
  0.0000000000000000  0.0000000000000000  0.0000000000000000
  0.0000000000000000  0.0000000000000000  0.0000000000000000
  0.0000000000000000  0.0000000000000000  0.0000000000000000
  0.0000000000000000  0.0000000000000000  0.0000000000000000
  0.0000000000000000  0.0000000000000000  0.0000000000000000
  0.0000000000000000  0.0000000000000000  0.0000000000000000
  0.0000000000000000  0.0000000000000000  0.0000000000000000
  0.0000000000000000  0.0000000000000000  0.0000000000000000
  0.0000000000000000  0.0000000000000000  0.0000000000000000
  0.0000000000000000  0.0000000000000000  0.0000000000000000
  0.0000000000000000  0.0000000000000000  0.0000000000000000
  0.0000000000000000  0.0000000000000000  0.0000000000000000
  0.0000000000000000  0.0000000000000000  0.0000000000000000
  0.0000000000000000  0.0000000000000000  0.0000000000000000
  0.0000000000000000  0.0000000000000000  0.0000000000000000
  0.0000000000000000  0.0000000000000000  0.0000000000000000
  0.0000000000000000  0.0000000000000000  0.0000000000000000
  0.0000000000000000  0.0000000000000000  0.0000000000000000
  0.0000000000000000  0.0000000000000000  0.0000000000000000
  0.0000000000000000  0.0000000000000000  0.0000000000000000
  0.0000000000000000  0.0000000000000000  0.0000000000000000
  0.0000000000000000  0.0000000000000000  0.0000000000000000
  0.0000000000000000  0.0000000000000000  0.0000000000000000
  0.0000000000000000  0.0000000000000000  0.0000000000000000
  0.0000000000000000  0.0000000000000000  0.0000000000000000
  0.0000000000000000  0.0000000000000000  0.0000000000000000
  0.0000000000000000  0.0000000000000000  0.0000000000000000
  0.0000000000000000  0.0000000000000000  0.0000000000000000
  0.0000000000000000  0.0000000000000000  0.0000000000000000
  0.0000000000000000  0.0000000000000000  0.0000000000000000
  0.0000000000000000  0.0000000000000000  0.0000000000000000
  0.0000000000000000  0.0000000000000000  0.0000000000000000
  0.0000000000000000  0.0000000000000000  0.0000000000000000
  0.0000000000000000  0.0000000000000000  0.0000000000000000
  0.0000000000000000  0.0000000000000000  0.0000000000000000
  0.0000000000000000  0.0000000000000000  0.0000000000000000
  0.0000000000000000  0.0000000000000000  0.0000000000000000
  0.0000000000000000  0.0000000000000000  0.0000000000000000
  0.0000000000000000  0.0000000000000000  0.0000000000000000
  0.0000000000000000  0.0000000000000000  0.0000000000000000
  0.0000000000000000  0.0000000000000000  0.0000000000000000
  0.0000000000000000  0.0000000000000000  0.0000000000000000
  0.0000000000000000  0.0000000000000000  0.0000000000000000
  0.0000000000000000  0.0000000000000000  0.0000000000000000
  0.0000000000000000  0.0000000000000000  0.0000000000000000
  0.0000000000000000  0.0000000000000000  0.0000000000000000
  0.0000000000000000  0.0000000000000000  0.0000000000000000
  0.0000000000000000  0.0000000000000000  0.0000000000000000
  0.0000000000000000  0.0000000000000000  0.0000000000000000
  0.0000000000000000  0.0000000000000000  0.0000000000000000
  0.0000000000000000  0.0000000000000000  0.0000000000000000
  0.0000000000000000  0.0000000000000000  0.0000000000000000
  0.0000000000000000  0.0000000000000000  0.0000000000000000
  0.0000000000000000  0.0000000000000000  0.0000000000000000
  0.0000000000000000  0.0000000000000000  0.0000000000000000
  0.0000000000000000  0.0000000000000000  0.0000000000000000
  0.0000000000000000  0.0000000000000000  0.0000000000000000
  0.0000000000000000  0.0000000000000000  0.0000000000000000
  0.0000000000000000  0.0000000000000000  0.0000000000000000
  0.0000000000000000  0.0000000000000000  0.0000000000000000
  0.0000000000000000  0.0000000000000000  0.0000000000000000
  0.0000000000000000  0.0000000000000000  0.0000000000000000
  0.0000000000000000  0.0000000000000000  0.0000000000000000
  0.0000000000000000  0.0000000000000000  0.0000000000000000
  0.0000000000000000  0.0000000000000000  0.0000000000000000
  0.0000000000000000  0.0000000000000000  0.0000000000000000
  0.0000000000000000  0.0000000000000000  0.0000000000000000
  0.0000000000000000  0.0000000000000000  0.0000000000000000
  0.0000000000000000  0.0000000000000000  0.0000000000000000
  0.0000000000000000  0.0000000000000000  0.0000000000000000
  0.0000000000000000  0.0000000000000000  0.0000000000000000
  0.0000000000000000  0.0000000000000000  0.0000000000000000
  0.0000000000000000  0.0000000000000000  0.0000000000000000
  0.0000000000000000  0.0000000000000000  0.0000000000000000
  0.0000000000000000  0.0000000000000000  0.0000000000000000
  0.0000000000000000  0.0000000000000000  0.0000000000000000
  0.0000000000000000  0.0000000000000000  0.0000000000000000
  0.0000000000000000  0.0000000000000000  0.0000000000000000
  0.0000000000000000  0.0000000000000000  0.0000000000000000
  0.0000000000000000  0.0000000000000000  0.0000000000000000
  0.0000000000000000  0.0000000000000000  0.0000000000000000
  0.0000000000000000  0.0000000000000000  0.0000000000000000
  0.0000000000000000  0.0000000000000000  0.0000000000000000
  0.0000000000000000  0.0000000000000000  0.0000000000000000
  0.0000000000000000  0.0000000000000000  0.0000000000000000
  0.0000000000000000  0.0000000000000000  0.0000000000000000
  0.0000000000000000  0.0000000000000000  0.0000000000000000
  0.0000000000000000  0.0000000000000000  0.0000000000000000
  0.0000000000000000  0.0000000000000000  0.0000000000000000
  0.0000000000000000  0.0000000000000000  0.0000000000000000
  0.0000000000000000  0.0000000000000000  0.0000000000000000
  0.0000000000000000  0.0000000000000000  0.0000000000000000
  0.0000000000000000  0.0000000000000000  0.0000000000000000
  0.0000000000000000  0.0000000000000000  0.0000000000000000
  0.0000000000000000  0.0000000000000000  0.0000000000000000
  0.0000000000000000  0.0000000000000000  0.0000000000000000
  0.0000000000000000  0.0000000000000000  0.0000000000000000
  0.0000000000000000  0.0000000000000000  0.0000000000000000
  0.0000000000000000  0.0000000000000000  0.0000000000000000
  0.0000000000000000  0.0000000000000000  0.0000000000000000
  0.0000000000000000  0.0000000000000000  0.0000000000000000
  0.0000000000000000  0.0000000000000000  0.0000000000000000
  0.0000000000000000  0.0000000000000000  0.0000000000000000
  0.0000000000000000  0.0000000000000000  0.0000000000000000
  0.0000000000000000  0.0000000000000000  0.0000000000000000
  0.0000000000000000  0.0000000000000000  0.0000000000000000
  0.0000000000000000  0.0000000000000000  0.0000000000000000
  0.0000000000000000  0.0000000000000000  0.0000000000000000
