C  H  O  Pd
 1.0000000000000000
     9.5317092920176041    0.0000000000000000    0.0000000000000000
     0.0000000000000000   12.8477517144159332    0.0000000000000000
     0.0000000000000000    0.0000000000000000   32.1028443220921673
 C   H   O   Pd 
   2   3  98  48
Selective dynamics
Direct
  0.3338055475842026  0.0076341537453883  0.4426982887653902   T   T   T
  0.2538803380127139  0.3391040938944793  0.4978497460230993   T   T   T
  0.1459131725061570  0.3560113362586121  0.4874911477311106   T   T   T
  0.3042004289978918  0.4091134602197581  0.5109879385172917   T   T   T
  0.2556381036915332  0.2743128459102055  0.5201881841222911   T   T   T
  0.5000000000000000  0.7789897956032235  0.0851486940133555   F   F   F
  0.4999976639328576  0.5290466686199733  0.1895761637574985   F   F   F
  0.3336278316187916  0.1411439583303729  0.3236876687739235   T   T   T
  0.3335173147493262  0.1012198869521133  0.2471916824531666   T   T   T
  0.8337218701650791  0.0178661157424094  0.3799420838821161   T   T   T
  0.8333333333333357  0.2789897956032235  0.0851486940133555   F   F   F
  0.3335914790361321  0.8442661302961232  0.3496857637082429   T   T   T
  0.3337488753049305  0.9098918788561997  0.4327142036541082   T   T   T
  0.5004975219334510  0.7099395432279370  0.3997582826685245   T   T   T
  0.5000566324607217  0.5175210274772197  0.3917120700247307   T   T   T
  0.3334831231411324  0.6016793737820637  0.2475954466254608   T   T   T
  0.3336229057053705  0.6376621666742613  0.3243061546751189   T   T   T
  0.6690234633482188  0.3709468085828365  0.4272754166385869   T   T   T
  0.4998463116056062  0.7720283544690911  0.2777230949400187   T   T   T
  0.3333333333333357  0.8750000000000000  0.1467763379882641   F   F   F
  0.3333318648019943  0.8750000864356643  0.2250895420487288   F   F   F
  0.4999976377976332  0.7209531764862156  0.1895758217978223   F   F   F
  0.3333333333333357  0.6250000000000000  0.0467248317610185   F   F   F
  0.3333333333333357  0.6250000000000000  0.1235725562656853   F   F   F
  0.5000000000000000  0.9710102043967765  0.0851486940133555   F   F   F
  0.6682834719857950  0.8806407772194085  0.4250147660864404   T   T   T
  0.5000343264525802  0.9640344592425273  0.2945819927437728   T   T   T
  0.6665579736745341  0.3428926683383840  0.3496928955957355   T   T   T
  0.8333333333333357  0.7789897956032235  0.0851486940133555   F   F   F
  0.3365007350311440  0.2995842211869363  0.4632279095543910   T   T   T
  0.3342657047692186  0.0553249097886968  0.4749477658699700   T   T   T
  0.8337727038006788  0.7082557007655805  0.3992969017738150   T   T   T
  0.6669070918732414  0.6020019561641750  0.2477117710737610   T   T   T
  0.8337589020947479  0.5178989097008967  0.3908358542334740   T   T   T
  0.8333333333333357  0.4710102043967765  0.0851486940133555   F   F   F
  0.8333339558353259  0.0290462541212847  0.1895758119370538   F   F   F
  0.6666666666666643  0.1250000000000000  0.1235725562656853   F   F   F
  0.3333333333333357  0.3750000000000000  0.1467763379882641   F   F   F
  0.3330316791210944  0.3775627011382432  0.4315633163593010   T   T   T
  0.8334422415406376  0.9639193920309018  0.2957512008762881   T   T   T
  0.6667408679596075  0.6357922801022413  0.3246247320022047   T   T   T
  0.8333333409382341  0.7209531152421449  0.1895756052193645   F   F   F
  0.8334529399132743  0.7720725039141048  0.2777984213846501   T   T   T
  0.6666666666666643  0.8750000000000000  0.1467763379882641   F   F   F
  0.6666655358647100  0.8750000108504334  0.2250883423864175   F   F   F
  0.8333333008508301  0.5290468981117665  0.1895759154731361   F   F   F
  0.6666666666666643  0.6250000000000000  0.0467248317610185   F   F   F
  0.6666666666666643  0.6250000000000000  0.1235725562656853   F   F   F
  0.8333333333333357  0.9710102043967765  0.0851486940133555   F   F   F
  0.4996209467975131  0.2736868687797371  0.2778118226717518   T   T   T
  0.5040330811110114  0.2035272200522959  0.4005689199091939   T   T   T
  0.3343115175519393  0.3462296810237905  0.3508617751667114   T   T   T
  0.8337247268589285  0.2051694378871653  0.4000020222827128   T   T   T
  0.0000003549571299  0.8750000107713112  0.2250882234763902   F   F   F
  0.8336241601981838  0.4639272041738947  0.2974531256183859   T   T   T
  0.8334442823797805  0.2735807156523554  0.2775391863697736   T   T   T
  0.6666666666666643  0.3750000000000000  0.1467763379882641   F   F   F
  0.6666664721965994  0.3750001394610554  0.2250885421256194   F   F   F
  0.8333336160653568  0.2209531548581329  0.1895755782756444   F   F   F
  0.6666666666666643  0.1250000000000000  0.0467248317610185   F   F   F
  0.3333326882537072  0.3749997926392740  0.2250885499289598   F   F   F
  0.6668118408364777  0.8374236409155892  0.3484112900707675   T   T   T
  0.4999980417944865  0.0290462347966568  0.1895760715474884   F   F   F
  0.1669204791262945  0.4643977461897980  0.2976918199027403   T   T   T
  0.1666659623339084  0.7209538630219027  0.1895756713862576   F   F   F
  0.1666659175182925  0.5290462010831961  0.1895759780398522   F   F   F
  0.0000000000000000  0.6250000000000000  0.0467248317610185   F   F   F
  0.4999988243319552  0.2209529651499486  0.1895755725505499   F   F   F
  0.1666666666666643  0.9710102043967765  0.0851486940133555   F   F   F
  0.5043561492273614  0.0176437487330611  0.3747108509891991   T   T   T
  0.1666666666666643  0.7789897956032235  0.0851486940133555   F   F   F
  0.0006256630823827  0.3425431723426701  0.3494908536842222   T   T   T
  0.9990050694943319  0.3710619613091627  0.4272672427006077   T   T   T
  0.1633240150694406  0.2036043892201930  0.4005411271454228   T   T   T
  0.1628663709360572  0.0176461364955946  0.3748068493415040   T   T   T
  1.0009614097326793  0.1031782164377050  0.2473902240036037   T   T   T
  0.1676149515969296  0.2735584322554712  0.2778748461969692   T   T   T
  0.5002296649441201  0.4645256221783397  0.2976181768781685   T   T   T
  0.1670185649408330  0.9640062306487345  0.2945922729696435   T   T   T
  0.0000000000000000  0.3750000000000000  0.1467763379882641   F   F   F
  0.1666663400494306  0.0290460185855896  0.1895759024921872   F   F   F
  0.0000007107164886  0.3749999603060230  0.2250885125878732   F   F   F
  0.6665546875450694  0.1428903686514083  0.3232616395216149   T   T   T
  0.6659505749066197  0.1030356587181309  0.2473837244828576   T   T   T
  0.0004674395528547  0.1427811111257345  0.3232336822193324   T   T   T
  0.0000000000000000  0.1250000000000000  0.0467248317610185   F   F   F
  0.0000000000000000  0.1250000000000000  0.1235725562656853   F   F   F
  0.1666666666666643  0.4710102043967765  0.0851486940133555   F   F   F
  0.1666666666666643  0.2789897956032235  0.0851486940133555   F   F   F
  0.0000000000000000  0.8750000000000000  0.1467763379882641   F   F   F
  0.1666663027958614  0.2209539505437224  0.1895756072453514   F   F   F
  0.0000000000000000  0.6250000000000000  0.1235725562656853   F   F   F
  0.3333333333333357  0.1250000000000000  0.0467248317610185   F   F   F
  0.1677299828508110  0.5175738668599826  0.3916624192316721   T   T   T
  0.5000000000000000  0.2789897956032235  0.0851486940133555   F   F   F
  0.1671191110428587  0.7099147016776917  0.3997668768930461   T   T   T
  0.9991965972156442  0.8803622115679416  0.4250456604139700   T   T   T
  0.3333333333333357  0.1250000000000000  0.1235725562656853   F   F   F
  1.0000795296435032  0.6019748548378994  0.2477182479439973   T   T   T
  0.5000000000000000  0.4710102043967765  0.0851486940133555   F   F   F
  0.0003702016922661  0.6356051601289827  0.3246223410844205   T   T   T
  0.0005488355890149  0.8373330568790612  0.3483720059897553   T   T   T
  0.1671843151109716  0.7720221947859850  0.2776976243827505   T   T   T
  0.6666751206848182  0.8674075623801160  0.2871058677323251   T   T   T
  0.8335316598669552  0.6177231195828351  0.2861118578785012   T   T   T
  0.8333333333333357  0.6250000000000000  0.0851486940133555   F   F   F
  0.1683801019265508  0.1194877434156959  0.2855605821244108   T   T   T
  0.3337783746328691  0.1060411949308241  0.3890384438485511   T   T   T
  0.1666666847735583  0.3750001305958783  0.1858643915636921   F   F   F
  0.3335078336985048  0.8673329440410738  0.2876885378003949   T   T   T
  0.5000014304295636  0.3749999974283293  0.1858644222348644   F   F   F
  0.0000000000000000  0.3750000000000000  0.0851486940133555   F   F   F
  0.4987037174276993  0.1195403073354909  0.2855480104505676   T   T   T
  0.8337473587774912  0.8629901297333266  0.3873073959837471   T   T   T
  0.6665922358901943  0.6142477453275487  0.3865521258058117   T   T   T
  0.3333354546060130  0.1249999476819220  0.1847578122735502   F   F   F
  0.9999970987911158  0.1250000184490408  0.1847578466783704   F   F   F
  0.3333333333333357  0.3750000000000000  0.0851486940133555   F   F   F
  0.1630029345761595  0.3601370569057688  0.3889926738106458   T   T   T
  0.1666666666666643  0.1250000000000000  0.0851486940133555   F   F   F
  0.6666666666666643  0.8750000000000000  0.0851486940133555   F   F   F
  0.3336268841242450  0.3683965340983300  0.2883576296236998   T   T   T
  0.6666655568862668  0.6249997720375131  0.1847577838516319   F   F   F
  0.9998798515734746  0.1136014799289401  0.3845154722247148   T   T   T
  0.5049656789528767  0.3602065804414817  0.3891005913942989   T   T   T
  0.5000005790671146  0.8749996008049955  0.1858647103970161   F   F   F
  0.5065586935842545  0.8652130162147035  0.3867664282832953   T   T   T
  0.3338497851179064  0.6152108701254870  0.3860835933046354   T   T   T
  0.1607814909160834  0.8651626167677843  0.3867607409942329   T   T   T
  0.3333348655297959  0.6249998188937667  0.1847577531331055   F   F   F
  0.8333333333333357  0.1250000000000000  0.0851486940133555   F   F   F
  0.6666666666666643  0.3750000000000000  0.0851486940133555   F   F   F
  0.1666668975657561  0.8749998441626324  0.1858646099702742   F   F   F
  1.0009163024219307  0.6142579280672779  0.3865753318435787   T   T   T
  0.6674004332551760  0.1135312241857414  0.3845187451404946   T   T   T
  0.6666662687465629  0.1249996349829204  0.1847578301666214   F   F   F
  0.8333311666192106  0.8749995704976669  0.1858642171120021   F   F   F
  0.0000000000000000  0.8750000000000000  0.0851486940133555   F   F   F
  0.8334468427599898  0.1189510587735790  0.2852937661506985   T   T   T
  0.6665612367767761  0.3683773579064086  0.2878550833794717   T   T   T
  0.3333333333333357  0.8750000000000000  0.0851486940133555   F   F   F
  0.5000000000000000  0.6250000000000000  0.0851486940133555   F   F   F
  0.5001477755905726  0.6179868765837455  0.2859484502193555   T   T   T
  0.1669260459173724  0.6179645356020690  0.2859566756366103   T   T   T
  0.8333316115610666  0.3750001538755701  0.1858644410325545   F   F   F
  1.0002950912135176  0.8673879890795260  0.2870931062813880   T   T   T
  1.0005748421910394  0.3682334630244547  0.2878050898715648   T   T   T
  0.8338629763653644  0.3612095088007231  0.3890089994894425   T   T   T
  0.5000000000000000  0.1250000000000000  0.0851486940133555   F   F   F
  0.1666666666666643  0.6250000000000000  0.0851486940133555   F   F   F
  0.9999968754065039  0.6249998164331720  0.1847577848474051   F   F   F
Cartesian
  0.0000000000000000  0.0000000000000000  0.0000000000000000
  0.0000000000000000  0.0000000000000000  0.0000000000000000
  0.0000000000000000  0.0000000000000000  0.0000000000000000
  0.0000000000000000  0.0000000000000000  0.0000000000000000
  0.0000000000000000  0.0000000000000000  0.0000000000000000
  0.0000000000000000  0.0000000000000000  0.0000000000000000
  0.0000000000000000  0.0000000000000000  0.0000000000000000
  0.0000000000000000  0.0000000000000000  0.0000000000000000
  0.0000000000000000  0.0000000000000000  0.0000000000000000
  0.0000000000000000  0.0000000000000000  0.0000000000000000
  0.0000000000000000  0.0000000000000000  0.0000000000000000
  0.0000000000000000  0.0000000000000000  0.0000000000000000
  0.0000000000000000  0.0000000000000000  0.0000000000000000
  0.0000000000000000  0.0000000000000000  0.0000000000000000
  0.0000000000000000  0.0000000000000000  0.0000000000000000
  0.0000000000000000  0.0000000000000000  0.0000000000000000
  0.0000000000000000  0.0000000000000000  0.0000000000000000
  0.0000000000000000  0.0000000000000000  0.0000000000000000
  0.0000000000000000  0.0000000000000000  0.0000000000000000
  0.0000000000000000  0.0000000000000000  0.0000000000000000
  0.0000000000000000  0.0000000000000000  0.0000000000000000
  0.0000000000000000  0.0000000000000000  0.0000000000000000
  0.0000000000000000  0.0000000000000000  0.0000000000000000
  0.0000000000000000  0.0000000000000000  0.0000000000000000
  0.0000000000000000  0.0000000000000000  0.0000000000000000
  0.0000000000000000  0.0000000000000000  0.0000000000000000
  0.0000000000000000  0.0000000000000000  0.0000000000000000
  0.0000000000000000  0.0000000000000000  0.0000000000000000
  0.0000000000000000  0.0000000000000000  0.0000000000000000
  0.0000000000000000  0.0000000000000000  0.0000000000000000
  0.0000000000000000  0.0000000000000000  0.0000000000000000
  0.0000000000000000  0.0000000000000000  0.0000000000000000
  0.0000000000000000  0.0000000000000000  0.0000000000000000
  0.0000000000000000  0.0000000000000000  0.0000000000000000
  0.0000000000000000  0.0000000000000000  0.0000000000000000
  0.0000000000000000  0.0000000000000000  0.0000000000000000
  0.0000000000000000  0.0000000000000000  0.0000000000000000
  0.0000000000000000  0.0000000000000000  0.0000000000000000
  0.0000000000000000  0.0000000000000000  0.0000000000000000
  0.0000000000000000  0.0000000000000000  0.0000000000000000
  0.0000000000000000  0.0000000000000000  0.0000000000000000
  0.0000000000000000  0.0000000000000000  0.0000000000000000
  0.0000000000000000  0.0000000000000000  0.0000000000000000
  0.0000000000000000  0.0000000000000000  0.0000000000000000
  0.0000000000000000  0.0000000000000000  0.0000000000000000
  0.0000000000000000  0.0000000000000000  0.0000000000000000
  0.0000000000000000  0.0000000000000000  0.0000000000000000
  0.0000000000000000  0.0000000000000000  0.0000000000000000
  0.0000000000000000  0.0000000000000000  0.0000000000000000
  0.0000000000000000  0.0000000000000000  0.0000000000000000
  0.0000000000000000  0.0000000000000000  0.0000000000000000
  0.0000000000000000  0.0000000000000000  0.0000000000000000
  0.0000000000000000  0.0000000000000000  0.0000000000000000
  0.0000000000000000  0.0000000000000000  0.0000000000000000
  0.0000000000000000  0.0000000000000000  0.0000000000000000
  0.0000000000000000  0.0000000000000000  0.0000000000000000
  0.0000000000000000  0.0000000000000000  0.0000000000000000
  0.0000000000000000  0.0000000000000000  0.0000000000000000
  0.0000000000000000  0.0000000000000000  0.0000000000000000
  0.0000000000000000  0.0000000000000000  0.0000000000000000
  0.0000000000000000  0.0000000000000000  0.0000000000000000
  0.0000000000000000  0.0000000000000000  0.0000000000000000
  0.0000000000000000  0.0000000000000000  0.0000000000000000
  0.0000000000000000  0.0000000000000000  0.0000000000000000
  0.0000000000000000  0.0000000000000000  0.0000000000000000
  0.0000000000000000  0.0000000000000000  0.0000000000000000
  0.0000000000000000  0.0000000000000000  0.0000000000000000
  0.0000000000000000  0.0000000000000000  0.0000000000000000
  0.0000000000000000  0.0000000000000000  0.0000000000000000
  0.0000000000000000  0.0000000000000000  0.0000000000000000
  0.0000000000000000  0.0000000000000000  0.0000000000000000
  0.0000000000000000  0.0000000000000000  0.0000000000000000
  0.0000000000000000  0.0000000000000000  0.0000000000000000
  0.0000000000000000  0.0000000000000000  0.0000000000000000
  0.0000000000000000  0.0000000000000000  0.0000000000000000
  0.0000000000000000  0.0000000000000000  0.0000000000000000
  0.0000000000000000  0.0000000000000000  0.0000000000000000
  0.0000000000000000  0.0000000000000000  0.0000000000000000
  0.0000000000000000  0.0000000000000000  0.0000000000000000
  0.0000000000000000  0.0000000000000000  0.0000000000000000
  0.0000000000000000  0.0000000000000000  0.0000000000000000
  0.0000000000000000  0.0000000000000000  0.0000000000000000
  0.0000000000000000  0.0000000000000000  0.0000000000000000
  0.0000000000000000  0.0000000000000000  0.0000000000000000
  0.0000000000000000  0.0000000000000000  0.0000000000000000
  0.0000000000000000  0.0000000000000000  0.0000000000000000
  0.0000000000000000  0.0000000000000000  0.0000000000000000
  0.0000000000000000  0.0000000000000000  0.0000000000000000
  0.0000000000000000  0.0000000000000000  0.0000000000000000
  0.0000000000000000  0.0000000000000000  0.0000000000000000
  0.0000000000000000  0.0000000000000000  0.0000000000000000
  0.0000000000000000  0.0000000000000000  0.0000000000000000
  0.0000000000000000  0.0000000000000000  0.0000000000000000
  0.0000000000000000  0.0000000000000000  0.0000000000000000
  0.0000000000000000  0.0000000000000000  0.0000000000000000
  0.0000000000000000  0.0000000000000000  0.0000000000000000
  0.0000000000000000  0.0000000000000000  0.0000000000000000
  0.0000000000000000  0.0000000000000000  0.0000000000000000
  0.0000000000000000  0.0000000000000000  0.0000000000000000
  0.0000000000000000  0.0000000000000000  0.0000000000000000
  0.0000000000000000  0.0000000000000000  0.0000000000000000
  0.0000000000000000  0.0000000000000000  0.0000000000000000
  0.0000000000000000  0.0000000000000000  0.0000000000000000
  0.0000000000000000  0.0000000000000000  0.0000000000000000
  0.0000000000000000  0.0000000000000000  0.0000000000000000
  0.0000000000000000  0.0000000000000000  0.0000000000000000
  0.0000000000000000  0.0000000000000000  0.0000000000000000
  0.0000000000000000  0.0000000000000000  0.0000000000000000
  0.0000000000000000  0.0000000000000000  0.0000000000000000
  0.0000000000000000  0.0000000000000000  0.0000000000000000
  0.0000000000000000  0.0000000000000000  0.0000000000000000
  0.0000000000000000  0.0000000000000000  0.0000000000000000
  0.0000000000000000  0.0000000000000000  0.0000000000000000
  0.0000000000000000  0.0000000000000000  0.0000000000000000
  0.0000000000000000  0.0000000000000000  0.0000000000000000
  0.0000000000000000  0.0000000000000000  0.0000000000000000
  0.0000000000000000  0.0000000000000000  0.0000000000000000
  0.0000000000000000  0.0000000000000000  0.0000000000000000
  0.0000000000000000  0.0000000000000000  0.0000000000000000
  0.0000000000000000  0.0000000000000000  0.0000000000000000
  0.0000000000000000  0.0000000000000000  0.0000000000000000
  0.0000000000000000  0.0000000000000000  0.0000000000000000
  0.0000000000000000  0.0000000000000000  0.0000000000000000
  0.0000000000000000  0.0000000000000000  0.0000000000000000
  0.0000000000000000  0.0000000000000000  0.0000000000000000
  0.0000000000000000  0.0000000000000000  0.0000000000000000
  0.0000000000000000  0.0000000000000000  0.0000000000000000
  0.0000000000000000  0.0000000000000000  0.0000000000000000
  0.0000000000000000  0.0000000000000000  0.0000000000000000
  0.0000000000000000  0.0000000000000000  0.0000000000000000
  0.0000000000000000  0.0000000000000000  0.0000000000000000
  0.0000000000000000  0.0000000000000000  0.0000000000000000
  0.0000000000000000  0.0000000000000000  0.0000000000000000
  0.0000000000000000  0.0000000000000000  0.0000000000000000
  0.0000000000000000  0.0000000000000000  0.0000000000000000
  0.0000000000000000  0.0000000000000000  0.0000000000000000
  0.0000000000000000  0.0000000000000000  0.0000000000000000
  0.0000000000000000  0.0000000000000000  0.0000000000000000
  0.0000000000000000  0.0000000000000000  0.0000000000000000
  0.0000000000000000  0.0000000000000000  0.0000000000000000
  0.0000000000000000  0.0000000000000000  0.0000000000000000
  0.0000000000000000  0.0000000000000000  0.0000000000000000
  0.0000000000000000  0.0000000000000000  0.0000000000000000
  0.0000000000000000  0.0000000000000000  0.0000000000000000
  0.0000000000000000  0.0000000000000000  0.0000000000000000
  0.0000000000000000  0.0000000000000000  0.0000000000000000
  0.0000000000000000  0.0000000000000000  0.0000000000000000
  0.0000000000000000  0.0000000000000000  0.0000000000000000
  0.0000000000000000  0.0000000000000000  0.0000000000000000
  0.0000000000000000  0.0000000000000000  0.0000000000000000
  0.0000000000000000  0.0000000000000000  0.0000000000000000
