C  H  O  Pd
 1.0000000000000000
    12.3034736924171124    0.0000000000000000    0.0000000000000000
     0.0000000000000000   12.3034736924171142    0.0000000000000000
     0.0000000000000000    0.0000000000000000   29.1654207465942434
 C   H   O   Pd 
   1   3  17  96
Selective dynamics
Direct
  1.0556689925780456  0.3696081556596881  0.4208690608831582   T   T   T
  0.9742624396272467  0.3660421601450518  0.4369311362224637   T   T   T
  1.1171367587013910  0.3433882156691841  0.4462812291941620   T   T   T
  1.0725397678850570  0.4558344765783821  0.4110781711976507   T   T   T
  1.0592501537517283  0.2979786864450290  0.3828112953714678   T   T   T
  0.6847405018746211  0.1339020401397769  0.3612159291822147   T   T   T
  0.1848731090741799  0.6356147171425830  0.3610322686952445   T   T   T
  0.4361018135413976  0.1313601055164706  0.3626606864858714   T   T   T
  0.4330688373653352  0.4371125784694412  0.3216158142821416   T   T   T
  0.1859713467623452  0.9410603486532336  0.3202913803891057   T   T   T
  0.6854371436587653  0.9406517921750822  0.3196363576952510   T   T   T
  0.1890250877686663  0.4412494026118070  0.3206214575781907   T   T   T
  0.9375625081014075  0.6326409194652735  0.3620700394394936   T   T   T
  0.6871972541410180  0.4409543495545402  0.3208571064423530   T   T   T
  0.4381880762213834  0.6331653807447165  0.3622230854119271   T   T   T
  0.4342083066541939  0.9369187693168275  0.3206423869564242   T   T   T
  0.9316565534025720  0.4372435505421560  0.3212403341253040   T   T   T
  0.9321151366331143  0.1282390075634109  0.3633456038451150   T   T   T
  0.9338719974800404  0.9369952320049086  0.3211880830830570   T   T   T
  0.1888425134563211  0.1307688582817621  0.3623404294878638   T   T   T
  0.6840735363463929  0.6354281155405295  0.3614088854435378   T   T   T
  0.8500000000000014  0.0499999999999972  0.0514307684100572   F   F   F
  0.8997615269884247  0.9034060239212559  0.2534212928921073   T   T   T
  0.2499707131254955  0.8492987964248615  0.1855932700389138   T   T   T
  0.0597688590840359  0.0406374256245688  0.3400874726878672   T   T   T
  0.1507236091547503  0.1489864169829936  0.1853656493630883   F   F   F
  0.9500000000000028  0.2500000000000000  0.0514307684100572   F   F   F
  0.1499999999999986  0.1499999999999986  0.0514307684100572   F   F   F
  0.2999999999999972  0.2000000000000028  0.1181313319610595   F   F   F
  0.0000000000000000  0.1000000000000014  0.1181313319610595   F   F   F
  0.9486127127564162  0.2506768571014975  0.1843632683220324   F   F   F
  0.9972281679263834  0.1055804700721595  0.2532243952394426   T   T   T
  0.1000000000000014  0.2999999999999972  0.1181313319610595   F   F   F
  0.5604131047598864  0.5394431214497596  0.3400184822449288   T   T   T
  0.1941573951601301  0.2794935171447351  0.3379041645440996   T   T   T
  0.0957587304378374  0.2968062755837303  0.2530093240223327   T   T   T
  0.0499999999999972  0.4500000000000027  0.0514307684100572   F   F   F
  0.2000000000000028  0.5000000000000000  0.1181313319610595   F   F   F
  0.0491193131827514  0.4512444611448465  0.1844626448581111   F   F   F
  0.8485330413376032  0.0512636254534289  0.1852339871257567   F   F   F
  0.3122410907351685  0.5434282111205860  0.3399173971944772   T   T   T
  0.4500000000000028  0.2500000000000000  0.0514307684100572   F   F   F
  0.3485341556527256  0.0512641898857512  0.1852337169709379   F   F   F
  0.9378187012228885  0.7731261754249446  0.3311590581924429   T   T   T
  0.3999385938438941  0.9030731255217220  0.2530761761009538   T   T   T
  0.1874357343692596  0.7805933237593944  0.3342840361234389   T   T   T
  0.3117809619161758  0.0405069428046717  0.3396209006253912   T   T   T
  0.8109932887960261  0.5431234737350813  0.3400839107353053   T   T   T
  0.6899604962420052  0.2797404395588707  0.3349116248404508   T   T   T
  0.9300727091468681  0.2749606402625246  0.3365821475871377   T   T   T
  0.4380769317438863  0.7736691666490096  0.3313090687795465   T   T   T
  0.0605586361180653  0.5403083364159568  0.3391221112501724   T   T   T
  0.6868195590218146  0.7801586275768215  0.3342265591210763   T   T   T
  0.5597955452240735  0.0398513442875417  0.3393670640285442   T   T   T
  0.8102537601158392  0.0405384890763047  0.3394005039207555   T   T   T
  0.8999999999999986  0.8999999999999986  0.1181313319610595   F   F   F
  0.9007267702864395  0.4028236081694774  0.2537263209013154   T   T   T
  0.2499682108142002  0.3493012120833129  0.1855937382329413   T   T   T
  0.2500000000000000  0.3500000000000014  0.0514307684100572   F   F   F
  0.2500000000000000  0.8500000000000014  0.0514307684100572   F   F   F
  0.4334851477214839  0.2734495064637854  0.3326156958129622   T   T   T
  0.1507252829162628  0.6489864416498848  0.1853659281879895   F   F   F
  0.1959748886215153  0.4976610590299239  0.2539474822043272   T   T   T
  0.4949982351223776  0.1069412110727507  0.2535358543903413   T   T   T
  0.5000000000000000  0.1000000000000014  0.1181313319610595   F   F   F
  0.2962467562769024  0.2017862256439510  0.2583813613552464   T   T   T
  0.2977320619847257  0.6999153921115460  0.2571020177393756   T   T   T
  0.8999999999999986  0.3999999999999986  0.1181313319610595   F   F   F
  0.5955529808938116  0.7971133600192311  0.2517092862103203   T   T   T
  0.7500000000000000  0.8500000000000014  0.0514307684100572   F   F   F
  0.7972890306526921  0.7000746780447185  0.2570785865536241   T   T   T
  0.2999999999999972  0.7000000000000028  0.1181313319610595   F   F   F
  0.6000000000000014  0.2999999999999972  0.1181313319610595   F   F   F
  0.7999999999999972  0.7000000000000028  0.1181313319610595   F   F   F
  0.6950711694919043  0.0008829489509785  0.2534899449224153   T   T   T
  0.5491182374295687  0.9512475927721618  0.1844623188205349   F   F   F
  0.7000000000000027  0.0000000000000000  0.1181313319610595   F   F   F
  0.5499999999999972  0.9500000000000028  0.0514307684100572   F   F   F
  0.6507236918031661  0.6489854869807887  0.1853661340816861   F   F   F
  0.4486144413896602  0.7506743341769924  0.1843622545089304   F   F   F
  0.6499999999999986  0.6499999999999986  0.0514307684100572   F   F   F
  0.6000000000000014  0.7999999999999972  0.1181313319610595   F   F   F
  0.5499999999999972  0.4500000000000027  0.0514307684100572   F   F   F
  0.4486122021981009  0.2506766379109669  0.1843629363752118   F   F   F
  0.5969784530159485  0.2960918744767826  0.2521571764747709   T   T   T
  0.5000000000000000  0.6000000000000014  0.1181313319610595   F   F   F
  0.3485320028910852  0.5512631916718084  0.1852336449463447   F   F   F
  0.4969201257487095  0.6057998265370226  0.2534181620507316   T   T   T
  0.4500000000000028  0.7500000000000000  0.0514307684100572   F   F   F
  0.1499999999999986  0.6499999999999986  0.0514307684100572   F   F   F
  0.9500000000000028  0.7500000000000000  0.0514307684100572   F   F   F
  0.0491177240126065  0.9512405474851490  0.1844615703293516   F   F   F
  0.7000000000000027  0.5000000000000000  0.1181313319610595   F   F   F
  0.3500000000000014  0.0499999999999972  0.0514307684100572   F   F   F
  0.7499668075026139  0.8492990416203603  0.1855918419518905   T   T   T
  0.1952494051314799 -0.0006571722176468  0.2537586237522992   T   T   T
  0.2000000000000028  0.0000000000000000  0.1181313319610595   F   F   F
  0.0499999999999972  0.9500000000000028  0.0514307684100572   F   F   F
  0.9486106854241280  0.7506756416198153  0.1843625136127240   F   F   F
  0.1000000000000014  0.7999999999999972  0.1181313319610595   F   F   F
  0.3999999999999986  0.8999999999999986  0.1181313319610595   F   F   F
  0.9962474246612032  0.6055370170902732  0.2530829988879165   T   T   T
  0.8485338373677122  0.5512634687110046  0.1852339858465592   F   F   F
  0.3500000000000014  0.5499999999999972  0.0514307684100572   F   F   F
  0.0000000000000000  0.6000000000000014  0.1181313319610595   F   F   F
  0.4016894653029788  0.4027347746500279  0.2535870527407960   T   T   T
  0.7499688545785510  0.3493009249718623  0.1855923550188662   T   T   T
  0.3999999999999986  0.3999999999999986  0.1181313319610595   F   F   F
  0.7500000000000000  0.3500000000000014  0.0514307684100572   F   F   F
  0.8008110839343561  0.2016929471136652  0.2582861989700397   T   T   T
  0.6507246110173561  0.1489888581776777  0.1853660239556655   F   F   F
  0.7999999999999972  0.2000000000000028  0.1181313319610595   F   F   F
  0.6499999999999986  0.1499999999999986  0.0514307684100572   F   F   F
  0.6954717513936467  0.4982610821366231  0.2540238883307833   T   T   T
  0.5491175178526683  0.4512445656232251  0.1844618875770611   F   F   F
  0.8500000000000014  0.5499999999999972  0.0514307684100572   F   F   F
  0.0953271118765092  0.7968932903748617  0.2517959896020749   T   T   T
Cartesian
  0.0000000000000000  0.0000000000000000  0.0000000000000000
  0.0000000000000000  0.0000000000000000  0.0000000000000000
  0.0000000000000000  0.0000000000000000  0.0000000000000000
  0.0000000000000000  0.0000000000000000  0.0000000000000000
  0.0000000000000000  0.0000000000000000  0.0000000000000000
  0.0000000000000000  0.0000000000000000  0.0000000000000000
  0.0000000000000000  0.0000000000000000  0.0000000000000000
  0.0000000000000000  0.0000000000000000  0.0000000000000000
  0.0000000000000000  0.0000000000000000  0.0000000000000000
  0.0000000000000000  0.0000000000000000  0.0000000000000000
  0.0000000000000000  0.0000000000000000  0.0000000000000000
  0.0000000000000000  0.0000000000000000  0.0000000000000000
  0.0000000000000000  0.0000000000000000  0.0000000000000000
  0.0000000000000000  0.0000000000000000  0.0000000000000000
  0.0000000000000000  0.0000000000000000  0.0000000000000000
  0.0000000000000000  0.0000000000000000  0.0000000000000000
  0.0000000000000000  0.0000000000000000  0.0000000000000000
  0.0000000000000000  0.0000000000000000  0.0000000000000000
  0.0000000000000000  0.0000000000000000  0.0000000000000000
  0.0000000000000000  0.0000000000000000  0.0000000000000000
  0.0000000000000000  0.0000000000000000  0.0000000000000000
  0.0000000000000000  0.0000000000000000  0.0000000000000000
  0.0000000000000000  0.0000000000000000  0.0000000000000000
  0.0000000000000000  0.0000000000000000  0.0000000000000000
  0.0000000000000000  0.0000000000000000  0.0000000000000000
  0.0000000000000000  0.0000000000000000  0.0000000000000000
  0.0000000000000000  0.0000000000000000  0.0000000000000000
  0.0000000000000000  0.0000000000000000  0.0000000000000000
  0.0000000000000000  0.0000000000000000  0.0000000000000000
  0.0000000000000000  0.0000000000000000  0.0000000000000000
  0.0000000000000000  0.0000000000000000  0.0000000000000000
  0.0000000000000000  0.0000000000000000  0.0000000000000000
  0.0000000000000000  0.0000000000000000  0.0000000000000000
  0.0000000000000000  0.0000000000000000  0.0000000000000000
  0.0000000000000000  0.0000000000000000  0.0000000000000000
  0.0000000000000000  0.0000000000000000  0.0000000000000000
  0.0000000000000000  0.0000000000000000  0.0000000000000000
  0.0000000000000000  0.0000000000000000  0.0000000000000000
  0.0000000000000000  0.0000000000000000  0.0000000000000000
  0.0000000000000000  0.0000000000000000  0.0000000000000000
  0.0000000000000000  0.0000000000000000  0.0000000000000000
  0.0000000000000000  0.0000000000000000  0.0000000000000000
  0.0000000000000000  0.0000000000000000  0.0000000000000000
  0.0000000000000000  0.0000000000000000  0.0000000000000000
  0.0000000000000000  0.0000000000000000  0.0000000000000000
  0.0000000000000000  0.0000000000000000  0.0000000000000000
  0.0000000000000000  0.0000000000000000  0.0000000000000000
  0.0000000000000000  0.0000000000000000  0.0000000000000000
  0.0000000000000000  0.0000000000000000  0.0000000000000000
  0.0000000000000000  0.0000000000000000  0.0000000000000000
  0.0000000000000000  0.0000000000000000  0.0000000000000000
  0.0000000000000000  0.0000000000000000  0.0000000000000000
  0.0000000000000000  0.0000000000000000  0.0000000000000000
  0.0000000000000000  0.0000000000000000  0.0000000000000000
  0.0000000000000000  0.0000000000000000  0.0000000000000000
  0.0000000000000000  0.0000000000000000  0.0000000000000000
  0.0000000000000000  0.0000000000000000  0.0000000000000000
  0.0000000000000000  0.0000000000000000  0.0000000000000000
  0.0000000000000000  0.0000000000000000  0.0000000000000000
  0.0000000000000000  0.0000000000000000  0.0000000000000000
  0.0000000000000000  0.0000000000000000  0.0000000000000000
  0.0000000000000000  0.0000000000000000  0.0000000000000000
  0.0000000000000000  0.0000000000000000  0.0000000000000000
  0.0000000000000000  0.0000000000000000  0.0000000000000000
  0.0000000000000000  0.0000000000000000  0.0000000000000000
  0.0000000000000000  0.0000000000000000  0.0000000000000000
  0.0000000000000000  0.0000000000000000  0.0000000000000000
  0.0000000000000000  0.0000000000000000  0.0000000000000000
  0.0000000000000000  0.0000000000000000  0.0000000000000000
  0.0000000000000000  0.0000000000000000  0.0000000000000000
  0.0000000000000000  0.0000000000000000  0.0000000000000000
  0.0000000000000000  0.0000000000000000  0.0000000000000000
  0.0000000000000000  0.0000000000000000  0.0000000000000000
  0.0000000000000000  0.0000000000000000  0.0000000000000000
  0.0000000000000000  0.0000000000000000  0.0000000000000000
  0.0000000000000000  0.0000000000000000  0.0000000000000000
  0.0000000000000000  0.0000000000000000  0.0000000000000000
  0.0000000000000000  0.0000000000000000  0.0000000000000000
  0.0000000000000000  0.0000000000000000  0.0000000000000000
  0.0000000000000000  0.0000000000000000  0.0000000000000000
  0.0000000000000000  0.0000000000000000  0.0000000000000000
  0.0000000000000000  0.0000000000000000  0.0000000000000000
  0.0000000000000000  0.0000000000000000  0.0000000000000000
  0.0000000000000000  0.0000000000000000  0.0000000000000000
  0.0000000000000000  0.0000000000000000  0.0000000000000000
  0.0000000000000000  0.0000000000000000  0.0000000000000000
  0.0000000000000000  0.0000000000000000  0.0000000000000000
  0.0000000000000000  0.0000000000000000  0.0000000000000000
  0.0000000000000000  0.0000000000000000  0.0000000000000000
  0.0000000000000000  0.0000000000000000  0.0000000000000000
  0.0000000000000000  0.0000000000000000  0.0000000000000000
  0.0000000000000000  0.0000000000000000  0.0000000000000000
  0.0000000000000000  0.0000000000000000  0.0000000000000000
  0.0000000000000000  0.0000000000000000  0.0000000000000000
  0.0000000000000000  0.0000000000000000  0.0000000000000000
  0.0000000000000000  0.0000000000000000  0.0000000000000000
  0.0000000000000000  0.0000000000000000  0.0000000000000000
  0.0000000000000000  0.0000000000000000  0.0000000000000000
  0.0000000000000000  0.0000000000000000  0.0000000000000000
  0.0000000000000000  0.0000000000000000  0.0000000000000000
  0.0000000000000000  0.0000000000000000  0.0000000000000000
  0.0000000000000000  0.0000000000000000  0.0000000000000000
  0.0000000000000000  0.0000000000000000  0.0000000000000000
  0.0000000000000000  0.0000000000000000  0.0000000000000000
  0.0000000000000000  0.0000000000000000  0.0000000000000000
  0.0000000000000000  0.0000000000000000  0.0000000000000000
  0.0000000000000000  0.0000000000000000  0.0000000000000000
  0.0000000000000000  0.0000000000000000  0.0000000000000000
  0.0000000000000000  0.0000000000000000  0.0000000000000000
  0.0000000000000000  0.0000000000000000  0.0000000000000000
  0.0000000000000000  0.0000000000000000  0.0000000000000000
  0.0000000000000000  0.0000000000000000  0.0000000000000000
  0.0000000000000000  0.0000000000000000  0.0000000000000000
  0.0000000000000000  0.0000000000000000  0.0000000000000000
  0.0000000000000000  0.0000000000000000  0.0000000000000000
  0.0000000000000000  0.0000000000000000  0.0000000000000000
  0.0000000000000000  0.0000000000000000  0.0000000000000000
