Pd O                                    
    1.000000000000000     
     4.5423661801323005    0.0000000000000000    0.0000000000000003
     0.0000000000000007    4.5423661801323005    0.0000000000000003
     0.0000000000000000    0.0000000000000000    3.1772364306725347
   Pd   O 
     2     4
Direct
  0.5000000000000000  0.5000000000000000  0.5000000000000000
  0.0000000000000000  1.0000000000000000  0.0000000000000000
  0.8079795912064474  0.1920204087935526  0.5000000000000000
  0.1920204087935526  0.8079795912064474  0.5000000000000000
  0.3079795912064474  0.3079795912064474  0.0000000000000000
  0.6920204087935526  0.6920204087935526  0.0000000000000000
 
  0.00000000E+00  0.00000000E+00  0.00000000E+00
  0.00000000E+00  0.00000000E+00  0.00000000E+00
  0.00000000E+00  0.00000000E+00  0.00000000E+00
  0.00000000E+00  0.00000000E+00  0.00000000E+00
  0.00000000E+00  0.00000000E+00  0.00000000E+00
  0.00000000E+00  0.00000000E+00  0.00000000E+00
