C  H  O 
 1.0000000000000000
    15.0000000000000000    0.0000000000000000    0.0000000000000000
     0.0000000000000000   15.0000000000000000    0.0000000000000000
     0.0000000000000000    0.0000000000000000   15.0000000000000000
 C   H   O  
   1   4   1
Direct
  0.4828753462451588  0.5000000000000000  0.4523333333333333
  0.5435680601783556  0.5000000000000000  0.5273591686567407
  0.5513739612645238  0.5000000000000000  0.4765899651043207
  0.4486260387354764  0.5593215407308204  0.4765899651043207
  0.4486260387354763  0.4406784592691796  0.4765899651043207
  0.4828753462451588  0.5000000000000000  0.5476666666666666
