C  O  Pd
 1.0000000000000000
     9.5317092920176041    0.0000000000000000    0.0000000000000000
     0.0000000000000000   12.8477517144159332    0.0000000000000000
     0.0000000000000000    0.0000000000000000   32.1028443220921673
 C   O   Pd 
   1  97  48
Selective dynamics
Direct
  0.4591220776836700  0.6209149038954752  0.4890969850634832   T   T   T
  0.8335655794056535  0.0436980079582895  0.3974136425334234   T   T   T
  0.8333333333333357  0.2789897956032235  0.0851486940133555   F   F   F
  0.3333629420434557  0.9045062211063323  0.3490484405193592   T   T   T
  0.3335506340507187  0.8808624278274036  0.4262246151217048   T   T   T
  0.5000751184124947  0.7327798844750768  0.3911129337312275   T   T   T
  0.4999288555405339  0.5436087980163893  0.3970599341249040   T   T   T
  0.3333739225525840  0.6479042395314450  0.2474889136183778   T   T   T
  0.3335955187418455  0.6128351514719867  0.3239827917381575   T   T   T
  0.4999769986950297  0.9768005005262637  0.2779711853317992   T   T   T
  0.3335160321044332  0.1472842481841145  0.2474467709759043   T   T   T
  0.3331578519913330  0.4057051253118465  0.3487804612740017   T   T   T
  0.3333318648019943  0.8750000864356643  0.2250895420487288   F   F   F
  0.4999976377976332  0.7209531764862156  0.1895758217978223   F   F   F
  0.3333333333333357  0.6250000000000000  0.0467248317610185   F   F   F
  0.3333333333333357  0.6250000000000000  0.1235725562656853   F   F   F
  0.5000000000000000  0.9710102043967765  0.0851486940133555   F   F   F
  0.5000000000000000  0.7789897956032235  0.0851486940133555   F   F   F
  0.6664671336863027  0.8808803428818165  0.4262402489538928   T   T   T
  0.3335666446993317  0.3798895072521420  0.4258891392677613   T   T   T
  0.4999681257396557  0.2329942941555773  0.3902309662599618   T   T   T
  0.3333333333333357  0.8750000000000000  0.1467763379882641   F   F   F
  0.4999922718292835  0.7855135414871711  0.2970609532853080   T   T   T
  0.4999976639328576  0.5290466686199733  0.1895761637574985   F   F   F
  0.6663085519315466  0.3792603990233107  0.4258113336216546   T   T   T
  0.8332689108313946  0.7330452481336827  0.3906520384085362   T   T   T
  0.6666645996956299  0.6478425731654082  0.2475078129781229   T   T   T
  0.8329574896621703  0.5434704208424552  0.3975002045485130   T   T   T
  0.8333333333333357  0.4710102043967765  0.0851486940133555   F   F   F
  0.8333339558353259  0.0290462541212847  0.1895758119370538   F   F   F
  0.6666666666666643  0.1250000000000000  0.1235725562656853   F   F   F
  0.3333333333333357  0.3750000000000000  0.1467763379882641   F   F   F
  0.8331263518939933  0.9769620679417125  0.2779727288769576   T   T   T
  0.4999554287363002  0.2856119038662632  0.2968642431660145   T   T   T
  0.6664258617078446  0.6126529221910403  0.3240128714224501   T   T   T
  0.8333333409382341  0.7209531152421449  0.1895756052193645   F   F   F
  0.8334218842981729  0.7855066847106748  0.2969854101741112   T   T   T
  0.6666666666666643  0.8750000000000000  0.1467763379882641   F   F   F
  0.6666655358647100  0.8750000108504334  0.2250883423864175   F   F   F
  0.8333333008508301  0.5290468981117665  0.1895759154731361   F   F   F
  0.6666666666666643  0.6250000000000000  0.0467248317610185   F   F   F
  0.6666666666666643  0.6250000000000000  0.1235725562656853   F   F   F
  0.8333333333333357  0.9710102043967765  0.0851486940133555   F   F   F
  0.8333333333333357  0.7789897956032235  0.0851486940133555   F   F   F
  0.6666844637954258  0.4056020553592378  0.3487798718134394   T   T   T
  0.4999509942450242  0.4773559626423094  0.2778344307597099   T   T   T
  0.4999677478273259  0.0433758638481442  0.3974097704845345   T   T   T
  0.8334653966773933  0.2329274892288804  0.3901566309672218   T   T   T
  0.3333948598984051  0.1115176927432728  0.3238323473199898   T   T   T
  0.6664915293552132  0.1473421311540497  0.2474467629920168   T   T   T
  0.8331121409596254  0.4771785024896760  0.2778655927831244   T   T   T
  0.8331785524659462  0.2855647657785565  0.2968723549011985   T   T   T
  0.6666666666666643  0.3750000000000000  0.1467763379882641   F   F   F
  0.6666664721965994  0.3750001394610554  0.2250885421256194   F   F   F
  0.8333336160653568  0.2209531548581329  0.1895755782756444   F   F   F
  0.6666666666666643  0.1250000000000000  0.0467248317610185   F   F   F
  0.3333326882537072  0.3749997926392740  0.2250885499289598   F   F   F
  0.6666301268734073  0.9046208558047505  0.3490320276167597   T   T   T
  0.4999980417944865  0.0290462347966568  0.1895760715474884   F   F   F
  0.1666659623339084  0.7209538630219027  0.1895756713862576   F   F   F
  1.0000117572167786  0.1473581322090275  0.2474275277188079   T   T   T
  0.1666659175182925  0.5290462010831961  0.1895759780398522   F   F   F
  0.0000000000000000  0.6250000000000000  0.0467248317610185   F   F   F
  0.4999988243319552  0.2209529651499486  0.1895755725505499   F   F   F
  0.1666666666666643  0.9710102043967765  0.0851486940133555   F   F   F
  0.1666666666666643  0.7789897956032235  0.0851486940133555   F   F   F
 -0.0000143654050708  0.4058928931679116  0.3488119370655874   T   T   T
  1.0000065154950044  0.3796841174129498  0.4259108563099125   T   T   T
  0.1666277778689112  0.2330126070340201  0.3901999352505237   T   T   T
  0.1665132294084906  0.0436962185391348  0.3974186769623925   T   T   T
  0.0000046631068708  0.1117986580321574  0.3237652405779609   T   T   T
  0.0000003549571299  0.8750000107713112  0.2250882234763902   F   F   F
  0.1668545110501840  0.4772085103232552  0.2778614047659935   T   T   T
  0.5752227308754773  0.6057458389233245  0.4961983463532811   T   T   T
  0.0000000000000000  0.3750000000000000  0.1467763379882641   F   F   F
  0.1667772943309231  0.2855539697465738  0.2968497384875810   T   T   T
  0.0000007107164886  0.3749999603060230  0.2250885125878732   F   F   F
  0.1666663027958614  0.2209539505437224  0.1895756072453514   F   F   F
  0.1666663400494306  0.0290460185855896  0.1895759024921872   F   F   F
  0.0000000000000000  0.1250000000000000  0.0467248317610185   F   F   F
  0.0000000000000000  0.1250000000000000  0.1235725562656853   F   F   F
  0.1666666666666643  0.4710102043967765  0.0851486940133555   F   F   F
  0.1666666666666643  0.2789897956032235  0.0851486940133555   F   F   F
  0.0000000000000000  0.8750000000000000  0.1467763379882641   F   F   F
  0.1665722447313439  0.7854967777610625  0.2969694961425366   T   T   T
  0.0000000000000000  0.6250000000000000  0.1235725562656853   F   F   F
  0.6666462159227962  0.1115813102002607  0.3238364876808754   T   T   T
  0.1665772081295662  0.5435016352681890  0.3974808199597994   T   T   T
  0.5000000000000000  0.2789897956032235  0.0851486940133555   F   F   F
  0.1663618123754075  0.7330045801202438  0.3905038329147960   T   T   T
  0.9999690204677543  0.8805365868608512  0.4262379101358685   T   T   T
  0.3333333333333357  0.1250000000000000  0.1235725562656853   F   F   F
  0.9999767087653214  0.6473168049077200  0.2475130984889481   T   T   T
  0.5000000000000000  0.4710102043967765  0.0851486940133555   F   F   F
  0.0000077159296669  0.9054361967086840  0.3490389556516894   T   T   T
 -0.0000465091981273  0.6122385860908952  0.3241479578794995   T   T   T
  0.1668939739620892  0.9769499048262928  0.2779754391895788   T   T   T
  0.3333333333333357  0.1250000000000000  0.0467248317610185   F   F   F
  0.6666511204471773  0.8816593623881076  0.2876742989519121   T   T   T
  0.8332901542575140  0.6317472947249978  0.2857309649782215   T   T   T
  0.3333391157769396  0.8816521830842868  0.2876753789584976   T   T   T
  0.6666655568862668  0.6249997720375131  0.1847577838516319   F   F   F
  0.3332973828404439  0.1372054464993853  0.3850128853979481   T   T   T
  0.8333333333333357  0.6250000000000000  0.0851486940133555   F   F   F
  0.6666666666666643  0.8750000000000000  0.0851486940133555   F   F   F
  0.8333311666192106  0.8749995704976669  0.1858642171120021   F   F   F
  0.1667950520811779  0.1316498015155395  0.2855394675002051   T   T   T
  0.1666666847735583  0.3750001305958783  0.1858643915636921   F   F   F
  0.6664862045413367  0.6374493407708446  0.3853029269026148   T   T   T
  0.3333893368912564  0.3819244484629470  0.2875492523467542   T   T   T
  0.5000033248128775  0.1315179330569541  0.2855949661295757   T   T   T
  0.8333435044628790  0.8885307839957211  0.3879839762932413   T   T   T
  0.3333354546060130  0.1249999476819220  0.1847578122735502   F   F   F
  0.0000000000000000  0.3750000000000000  0.0851486940133555   F   F   F
  0.9999970987911158  0.1250000184490408  0.1847578466783704   F   F   F
  0.3333333333333357  0.3750000000000000  0.0851486940133555   F   F   F
  0.1666043378030984  0.3886761331275594  0.3876846335675051   T   T   T
  0.4998770729111642  0.3883751394747114  0.3875561731870700   T   T   T
  0.1666666666666643  0.1250000000000000  0.0851486940133555   F   F   F
  0.5000014304295636  0.3749999974283293  0.1858644222348644   F   F   F
  0.5000000000000000  0.1250000000000000  0.0851486940133555   F   F   F
  0.1666666666666643  0.6250000000000000  0.0851486940133555   F   F   F
  0.9999896005001034  0.3818643407791716  0.2875675643007066   T   T   T
  0.5000005790671146  0.8749996008049955  0.1858647103970161   F   F   F
  0.3332981228507417  0.6374459204274332  0.3852077155117912   T   T   T
  0.1665939945996674  0.8884704271599561  0.3880009421781188   T   T   T
  0.3333348655297959  0.6249998188937667  0.1847577531331055   F   F   F
  0.9999968754065039  0.6249998164331720  0.1847577848474051   F   F   F
  0.8333333333333357  0.1250000000000000  0.0851486940133555   F   F   F
  0.6666666666666643  0.3750000000000000  0.0851486940133555   F   F   F
  0.1666668975657561  0.8749998441626324  0.1858646099702742   F   F   F
  0.9998530293900805  0.6372640605757602  0.3854308073889958   T   T   T
  0.6667238436940709  0.1371842348544219  0.3850274666743252   T   T   T
  0.6666662687465629  0.1249996349829204  0.1847578301666214   F   F   F
  0.0000000000000000  0.8750000000000000  0.0851486940133555   F   F   F
  0.8332212374496423  0.1316749783283383  0.2855402319331453   T   T   T
  0.6665353786642504  0.3819179464644816  0.2875521202782358   T   T   T
  0.3333333333333357  0.8750000000000000  0.0851486940133555   F   F   F
  0.5000000000000000  0.6250000000000000  0.0851486940133555   F   F   F
  1.0000379915929467  0.1373323848207102  0.3849258687518533   T   T   T
  0.5000454125619361  0.6319391608119995  0.2856842539480194   T   T   T
  0.1666637763673266  0.6317720829988904  0.2857025908901662   T   T   T
  0.8333316115610666  0.3750001538755701  0.1858644410325545   F   F   F
  1.0000138318699801  0.8818123419858259  0.2876734488631330   T   T   T
  0.8332953153385220  0.3885660545432451  0.3876474331990175   T   T   T
  0.4999692920145416  0.8884043344965358  0.3879148512967893   T   T   T
Cartesian
  0.0000000000000000  0.0000000000000000  0.0000000000000000
  0.0000000000000000  0.0000000000000000  0.0000000000000000
  0.0000000000000000  0.0000000000000000  0.0000000000000000
  0.0000000000000000  0.0000000000000000  0.0000000000000000
  0.0000000000000000  0.0000000000000000  0.0000000000000000
  0.0000000000000000  0.0000000000000000  0.0000000000000000
  0.0000000000000000  0.0000000000000000  0.0000000000000000
  0.0000000000000000  0.0000000000000000  0.0000000000000000
  0.0000000000000000  0.0000000000000000  0.0000000000000000
  0.0000000000000000  0.0000000000000000  0.0000000000000000
  0.0000000000000000  0.0000000000000000  0.0000000000000000
  0.0000000000000000  0.0000000000000000  0.0000000000000000
  0.0000000000000000  0.0000000000000000  0.0000000000000000
  0.0000000000000000  0.0000000000000000  0.0000000000000000
  0.0000000000000000  0.0000000000000000  0.0000000000000000
  0.0000000000000000  0.0000000000000000  0.0000000000000000
  0.0000000000000000  0.0000000000000000  0.0000000000000000
  0.0000000000000000  0.0000000000000000  0.0000000000000000
  0.0000000000000000  0.0000000000000000  0.0000000000000000
  0.0000000000000000  0.0000000000000000  0.0000000000000000
  0.0000000000000000  0.0000000000000000  0.0000000000000000
  0.0000000000000000  0.0000000000000000  0.0000000000000000
  0.0000000000000000  0.0000000000000000  0.0000000000000000
  0.0000000000000000  0.0000000000000000  0.0000000000000000
  0.0000000000000000  0.0000000000000000  0.0000000000000000
  0.0000000000000000  0.0000000000000000  0.0000000000000000
  0.0000000000000000  0.0000000000000000  0.0000000000000000
  0.0000000000000000  0.0000000000000000  0.0000000000000000
  0.0000000000000000  0.0000000000000000  0.0000000000000000
  0.0000000000000000  0.0000000000000000  0.0000000000000000
  0.0000000000000000  0.0000000000000000  0.0000000000000000
  0.0000000000000000  0.0000000000000000  0.0000000000000000
  0.0000000000000000  0.0000000000000000  0.0000000000000000
  0.0000000000000000  0.0000000000000000  0.0000000000000000
  0.0000000000000000  0.0000000000000000  0.0000000000000000
  0.0000000000000000  0.0000000000000000  0.0000000000000000
  0.0000000000000000  0.0000000000000000  0.0000000000000000
  0.0000000000000000  0.0000000000000000  0.0000000000000000
  0.0000000000000000  0.0000000000000000  0.0000000000000000
  0.0000000000000000  0.0000000000000000  0.0000000000000000
  0.0000000000000000  0.0000000000000000  0.0000000000000000
  0.0000000000000000  0.0000000000000000  0.0000000000000000
  0.0000000000000000  0.0000000000000000  0.0000000000000000
  0.0000000000000000  0.0000000000000000  0.0000000000000000
  0.0000000000000000  0.0000000000000000  0.0000000000000000
  0.0000000000000000  0.0000000000000000  0.0000000000000000
  0.0000000000000000  0.0000000000000000  0.0000000000000000
  0.0000000000000000  0.0000000000000000  0.0000000000000000
  0.0000000000000000  0.0000000000000000  0.0000000000000000
  0.0000000000000000  0.0000000000000000  0.0000000000000000
  0.0000000000000000  0.0000000000000000  0.0000000000000000
  0.0000000000000000  0.0000000000000000  0.0000000000000000
  0.0000000000000000  0.0000000000000000  0.0000000000000000
  0.0000000000000000  0.0000000000000000  0.0000000000000000
  0.0000000000000000  0.0000000000000000  0.0000000000000000
  0.0000000000000000  0.0000000000000000  0.0000000000000000
  0.0000000000000000  0.0000000000000000  0.0000000000000000
  0.0000000000000000  0.0000000000000000  0.0000000000000000
  0.0000000000000000  0.0000000000000000  0.0000000000000000
  0.0000000000000000  0.0000000000000000  0.0000000000000000
  0.0000000000000000  0.0000000000000000  0.0000000000000000
  0.0000000000000000  0.0000000000000000  0.0000000000000000
  0.0000000000000000  0.0000000000000000  0.0000000000000000
  0.0000000000000000  0.0000000000000000  0.0000000000000000
  0.0000000000000000  0.0000000000000000  0.0000000000000000
  0.0000000000000000  0.0000000000000000  0.0000000000000000
  0.0000000000000000  0.0000000000000000  0.0000000000000000
  0.0000000000000000  0.0000000000000000  0.0000000000000000
  0.0000000000000000  0.0000000000000000  0.0000000000000000
  0.0000000000000000  0.0000000000000000  0.0000000000000000
  0.0000000000000000  0.0000000000000000  0.0000000000000000
  0.0000000000000000  0.0000000000000000  0.0000000000000000
  0.0000000000000000  0.0000000000000000  0.0000000000000000
  0.0000000000000000  0.0000000000000000  0.0000000000000000
  0.0000000000000000  0.0000000000000000  0.0000000000000000
  0.0000000000000000  0.0000000000000000  0.0000000000000000
  0.0000000000000000  0.0000000000000000  0.0000000000000000
  0.0000000000000000  0.0000000000000000  0.0000000000000000
  0.0000000000000000  0.0000000000000000  0.0000000000000000
  0.0000000000000000  0.0000000000000000  0.0000000000000000
  0.0000000000000000  0.0000000000000000  0.0000000000000000
  0.0000000000000000  0.0000000000000000  0.0000000000000000
  0.0000000000000000  0.0000000000000000  0.0000000000000000
  0.0000000000000000  0.0000000000000000  0.0000000000000000
  0.0000000000000000  0.0000000000000000  0.0000000000000000
  0.0000000000000000  0.0000000000000000  0.0000000000000000
  0.0000000000000000  0.0000000000000000  0.0000000000000000
  0.0000000000000000  0.0000000000000000  0.0000000000000000
  0.0000000000000000  0.0000000000000000  0.0000000000000000
  0.0000000000000000  0.0000000000000000  0.0000000000000000
  0.0000000000000000  0.0000000000000000  0.0000000000000000
  0.0000000000000000  0.0000000000000000  0.0000000000000000
  0.0000000000000000  0.0000000000000000  0.0000000000000000
  0.0000000000000000  0.0000000000000000  0.0000000000000000
  0.0000000000000000  0.0000000000000000  0.0000000000000000
  0.0000000000000000  0.0000000000000000  0.0000000000000000
  0.0000000000000000  0.0000000000000000  0.0000000000000000
  0.0000000000000000  0.0000000000000000  0.0000000000000000
  0.0000000000000000  0.0000000000000000  0.0000000000000000
  0.0000000000000000  0.0000000000000000  0.0000000000000000
  0.0000000000000000  0.0000000000000000  0.0000000000000000
  0.0000000000000000  0.0000000000000000  0.0000000000000000
  0.0000000000000000  0.0000000000000000  0.0000000000000000
  0.0000000000000000  0.0000000000000000  0.0000000000000000
  0.0000000000000000  0.0000000000000000  0.0000000000000000
  0.0000000000000000  0.0000000000000000  0.0000000000000000
  0.0000000000000000  0.0000000000000000  0.0000000000000000
  0.0000000000000000  0.0000000000000000  0.0000000000000000
  0.0000000000000000  0.0000000000000000  0.0000000000000000
  0.0000000000000000  0.0000000000000000  0.0000000000000000
  0.0000000000000000  0.0000000000000000  0.0000000000000000
  0.0000000000000000  0.0000000000000000  0.0000000000000000
  0.0000000000000000  0.0000000000000000  0.0000000000000000
  0.0000000000000000  0.0000000000000000  0.0000000000000000
  0.0000000000000000  0.0000000000000000  0.0000000000000000
  0.0000000000000000  0.0000000000000000  0.0000000000000000
  0.0000000000000000  0.0000000000000000  0.0000000000000000
  0.0000000000000000  0.0000000000000000  0.0000000000000000
  0.0000000000000000  0.0000000000000000  0.0000000000000000
  0.0000000000000000  0.0000000000000000  0.0000000000000000
  0.0000000000000000  0.0000000000000000  0.0000000000000000
  0.0000000000000000  0.0000000000000000  0.0000000000000000
  0.0000000000000000  0.0000000000000000  0.0000000000000000
  0.0000000000000000  0.0000000000000000  0.0000000000000000
  0.0000000000000000  0.0000000000000000  0.0000000000000000
  0.0000000000000000  0.0000000000000000  0.0000000000000000
  0.0000000000000000  0.0000000000000000  0.0000000000000000
  0.0000000000000000  0.0000000000000000  0.0000000000000000
  0.0000000000000000  0.0000000000000000  0.0000000000000000
  0.0000000000000000  0.0000000000000000  0.0000000000000000
  0.0000000000000000  0.0000000000000000  0.0000000000000000
  0.0000000000000000  0.0000000000000000  0.0000000000000000
  0.0000000000000000  0.0000000000000000  0.0000000000000000
  0.0000000000000000  0.0000000000000000  0.0000000000000000
  0.0000000000000000  0.0000000000000000  0.0000000000000000
  0.0000000000000000  0.0000000000000000  0.0000000000000000
  0.0000000000000000  0.0000000000000000  0.0000000000000000
  0.0000000000000000  0.0000000000000000  0.0000000000000000
  0.0000000000000000  0.0000000000000000  0.0000000000000000
  0.0000000000000000  0.0000000000000000  0.0000000000000000
  0.0000000000000000  0.0000000000000000  0.0000000000000000
  0.0000000000000000  0.0000000000000000  0.0000000000000000
  0.0000000000000000  0.0000000000000000  0.0000000000000000
  0.0000000000000000  0.0000000000000000  0.0000000000000000
  0.0000000000000000  0.0000000000000000  0.0000000000000000
  0.0000000000000000  0.0000000000000000  0.0000000000000000
