C  O  Pd                                
    1.000000000000000     
    11.0046904376558210    0.0000000000000000    0.0000000000000000
     0.0000000000000000   11.0046904376558210    0.0000000000000000
     0.0000000000000000    0.0000000000000000   27.7814912333251840
   C    O    Pd
     1     1    80
Selective dynamics
Direct
  0.9830533385102428  0.2706806448498484  0.4060750959958128   T   T   T
  0.9736401227147550  0.2822901133309257  0.4473947935869790   T   T   T
  0.4999581001515352  0.7501213901132413  0.3352987754536179   T   T   T
  0.0000000000000000  0.5000000000000000  0.0539927820073487   F   F   F
  0.2500000000000000  0.0000000000000000  0.0539927820073487   F   F   F
  0.5000000000000000  0.0000000000000000  0.0539927820073487   F   F   F
  0.7500000000000000  0.0000000000000000  0.0539927820073487   F   F   F
  0.0000000000000000  0.2500000000000000  0.0539927820073487   F   F   F
  0.2500000000000000  0.2500000000000000  0.0539927820073487   F   F   F
  0.5000000000000000  0.2500000000000000  0.0539927820073487   F   F   F
  0.6250000000000000  0.1250000000000000  0.1240168419828507   F   F   F
  0.7500000000000000  0.2500000000000000  0.0539927820073487   F   F   F
  0.3750000000000000  0.1250000000000000  0.1240168419828507   F   F   F
  0.5000000000000000  0.5000000000000000  0.0539927820073487   F   F   F
  0.7500000000000000  0.5000000000000000  0.0539927820073487   F   F   F
  0.0000000000000000  0.7500000000000000  0.0539927820073487   F   F   F
  0.2500000000000000  0.7500000000000000  0.0539927820073487   F   F   F
  0.5000000000000000  0.7500000000000000  0.0539927820073487   F   F   F
  0.7500000000000000  0.7500000000000000  0.0539927820073487   F   F   F
  0.2500000000000000  0.5000000000000000  0.0539927820073487   F   F   F
  0.7500175023913002  0.7500986316637664  0.3351490106152593   T   T   T
  0.8750000000000000  0.1250000000000000  0.1240168419828507   F   F   F
  0.2489664570529793  0.2499807127640884  0.1948048095973523   T   T   T
  0.3750000000000000  0.3750000000000000  0.1240168419828507   F   F   F
  0.6250000000000000  0.3750000000000000  0.1240168419828507   F   F   F
  0.8750000000000000  0.3750000000000000  0.1240168419828507   F   F   F
  0.1250000000000000  0.6250000000000000  0.1240168419828507   F   F   F
  0.3750000000000000  0.6250000000000000  0.1240168419828507   F   F   F
  0.6250000000000000  0.6250000000000000  0.1240168419828507   F   F   F
  0.8750000000000000  0.6250000000000000  0.1240168419828507   F   F   F
  0.1250000000000000  0.1250000000000000  0.1240168419828507   F   F   F
  0.1250000000000000  0.8750000000000000  0.1240168419828507   F   F   F
  0.6250000000000000  0.8750000000000000  0.1240168419828507   F   F   F
  0.8750000000000000  0.8750000000000000  0.1240168419828507   F   F   F
  0.0000732260899384  0.0009215105479528  0.1949173652563947   T   T   T
  0.2499150393405714  0.0001630794386216  0.1954026146067918   F   F   F
  0.4999137022205687  0.9999557930931490  0.1944993523923320   T   T   T
  0.7500011421848072  0.0000256823302323  0.1953257540194855   F   F   F
  0.0000264985371317  0.2500548522087342  0.1953323097003690   F   F   F
  0.3750000000000000  0.8750000000000000  0.1240168419828507   F   F   F
  0.1250000000000000  0.3750000000000000  0.1240168419828507   F   F   F
  0.0000000000000000  0.0000000000000000  0.0539927820073487   F   F   F
  0.0000442777107867  0.4992505569084892  0.1948400662397456   T   T   T
  0.4999280546685410  0.5002329771167071  0.1944519694893481   T   T   T
  0.7498298673200026  0.5001763846929990  0.1952776047830938   F   F   F
  0.0000148038240155  0.7501096756382850  0.1954707106834590   F   F   F
  0.2499890237206372  0.7501816503469101  0.1954776148276665   F   F   F
  0.4999470800082000  0.7501089786547850  0.1945842023180941   T   T   T
  0.7499381983694491  0.7501696080891591  0.1954586688293318   F   F   F
  0.1236946886791238  0.1264875777308044  0.2663150684616582   T   T   T
  0.3747050648741495  0.1252091238693290  0.2648089620303685   T   T   T
  0.6254593872720350  0.1252167454455844  0.2647712373688026   T   T   T
  0.8760157258363613  0.1259867179334836  0.2660723678700679   T   T   T
  0.1242573301685103  0.3740254108313644  0.2660384224640150   T   T   T
  0.3749182113084545  0.3750586906248619  0.2647505913237739   T   T   T
  0.6253010005767047  0.3749916997166697  0.2647223123468099   T   T   T
  0.8757675568651944  0.3741853332549777  0.2659021477526181   T   T   T
  0.1249835599380409  0.6242141724497643  0.2651691118145749   T   T   T
  0.3752218555140853  0.6250203912068182  0.2650741148764796   T   T   T
  0.6246552659246708  0.6249921161161031  0.2650515538840613   T   T   T
  0.2500638074160833  0.5000994171797544  0.1953203383391156   F   F   F
  0.8749450356946316  0.6243211209823195  0.2651272126308661   T   T   T
  0.3752226149863129  0.8753002739789071  0.2651115577669023   T   T   T
  0.2533580938025529  0.2503519635286748  0.3356072799614842   T   T   T
  0.6246346155066960  0.8752966824780350  0.2650830928439317   T   T   T
  0.8748812392956363  0.8756124573053653  0.2651724043905518   T   T   T
  0.9997813111102606  0.9970298516220982  0.3357817985407787   T   T   T
  0.2506783108245276  0.9998579761691995  0.3355119722176195   T   T   T
  0.4999722724931088  0.0006310651958770  0.3351410755785394   T   T   T
  0.7491572611641795  0.9996959743545132  0.3354638534405823   T   T   T
  0.0015003608792966  0.2482772466200966  0.3403589617514511   T   T   T
  0.5006229881858785  0.2501259780591812  0.3348841547904202   T   T   T
  0.1250155534066484  0.8758066704402651  0.2652167070260026   T   T   T
  0.7478821143392587  0.2502640445580911  0.3356273402905396   T   T   T
  0.9998491381786768  0.5016929433064229  0.3357944297528237   T   T   T
  0.2508639080315772  0.5005449730322091  0.3354483256108998   T   T   T
  0.4999991995231072  0.4996646075736826  0.3351220950831634   T   T   T
  0.7490563336451973  0.5005952200294013  0.3353833833813125   T   T   T
  0.9999526334245052  0.7493732423352345  0.3350633990438355   T   T   T
  0.2498508046007762  0.7501444850021447  0.3351619195678229   T   T   T
  0.7510258207696396  0.2499841537213345  0.1947392080043478   T   T   T
  0.5000227627061490  0.2500181984336881  0.1944677066898318   T   T   T
 
  0.00000000E+00  0.00000000E+00  0.00000000E+00
  0.00000000E+00  0.00000000E+00  0.00000000E+00
  0.00000000E+00  0.00000000E+00  0.00000000E+00
  0.00000000E+00  0.00000000E+00  0.00000000E+00
  0.00000000E+00  0.00000000E+00  0.00000000E+00
  0.00000000E+00  0.00000000E+00  0.00000000E+00
  0.00000000E+00  0.00000000E+00  0.00000000E+00
  0.00000000E+00  0.00000000E+00  0.00000000E+00
  0.00000000E+00  0.00000000E+00  0.00000000E+00
  0.00000000E+00  0.00000000E+00  0.00000000E+00
  0.00000000E+00  0.00000000E+00  0.00000000E+00
  0.00000000E+00  0.00000000E+00  0.00000000E+00
  0.00000000E+00  0.00000000E+00  0.00000000E+00
  0.00000000E+00  0.00000000E+00  0.00000000E+00
  0.00000000E+00  0.00000000E+00  0.00000000E+00
  0.00000000E+00  0.00000000E+00  0.00000000E+00
  0.00000000E+00  0.00000000E+00  0.00000000E+00
  0.00000000E+00  0.00000000E+00  0.00000000E+00
  0.00000000E+00  0.00000000E+00  0.00000000E+00
  0.00000000E+00  0.00000000E+00  0.00000000E+00
  0.00000000E+00  0.00000000E+00  0.00000000E+00
  0.00000000E+00  0.00000000E+00  0.00000000E+00
  0.00000000E+00  0.00000000E+00  0.00000000E+00
  0.00000000E+00  0.00000000E+00  0.00000000E+00
  0.00000000E+00  0.00000000E+00  0.00000000E+00
  0.00000000E+00  0.00000000E+00  0.00000000E+00
  0.00000000E+00  0.00000000E+00  0.00000000E+00
  0.00000000E+00  0.00000000E+00  0.00000000E+00
  0.00000000E+00  0.00000000E+00  0.00000000E+00
  0.00000000E+00  0.00000000E+00  0.00000000E+00
  0.00000000E+00  0.00000000E+00  0.00000000E+00
  0.00000000E+00  0.00000000E+00  0.00000000E+00
  0.00000000E+00  0.00000000E+00  0.00000000E+00
  0.00000000E+00  0.00000000E+00  0.00000000E+00
  0.00000000E+00  0.00000000E+00  0.00000000E+00
  0.00000000E+00  0.00000000E+00  0.00000000E+00
  0.00000000E+00  0.00000000E+00  0.00000000E+00
  0.00000000E+00  0.00000000E+00  0.00000000E+00
  0.00000000E+00  0.00000000E+00  0.00000000E+00
  0.00000000E+00  0.00000000E+00  0.00000000E+00
  0.00000000E+00  0.00000000E+00  0.00000000E+00
  0.00000000E+00  0.00000000E+00  0.00000000E+00
  0.00000000E+00  0.00000000E+00  0.00000000E+00
  0.00000000E+00  0.00000000E+00  0.00000000E+00
  0.00000000E+00  0.00000000E+00  0.00000000E+00
  0.00000000E+00  0.00000000E+00  0.00000000E+00
  0.00000000E+00  0.00000000E+00  0.00000000E+00
  0.00000000E+00  0.00000000E+00  0.00000000E+00
  0.00000000E+00  0.00000000E+00  0.00000000E+00
  0.00000000E+00  0.00000000E+00  0.00000000E+00
  0.00000000E+00  0.00000000E+00  0.00000000E+00
  0.00000000E+00  0.00000000E+00  0.00000000E+00
  0.00000000E+00  0.00000000E+00  0.00000000E+00
  0.00000000E+00  0.00000000E+00  0.00000000E+00
  0.00000000E+00  0.00000000E+00  0.00000000E+00
  0.00000000E+00  0.00000000E+00  0.00000000E+00
  0.00000000E+00  0.00000000E+00  0.00000000E+00
  0.00000000E+00  0.00000000E+00  0.00000000E+00
  0.00000000E+00  0.00000000E+00  0.00000000E+00
  0.00000000E+00  0.00000000E+00  0.00000000E+00
  0.00000000E+00  0.00000000E+00  0.00000000E+00
  0.00000000E+00  0.00000000E+00  0.00000000E+00
  0.00000000E+00  0.00000000E+00  0.00000000E+00
  0.00000000E+00  0.00000000E+00  0.00000000E+00
  0.00000000E+00  0.00000000E+00  0.00000000E+00
  0.00000000E+00  0.00000000E+00  0.00000000E+00
  0.00000000E+00  0.00000000E+00  0.00000000E+00
  0.00000000E+00  0.00000000E+00  0.00000000E+00
  0.00000000E+00  0.00000000E+00  0.00000000E+00
  0.00000000E+00  0.00000000E+00  0.00000000E+00
  0.00000000E+00  0.00000000E+00  0.00000000E+00
  0.00000000E+00  0.00000000E+00  0.00000000E+00
  0.00000000E+00  0.00000000E+00  0.00000000E+00
  0.00000000E+00  0.00000000E+00  0.00000000E+00
  0.00000000E+00  0.00000000E+00  0.00000000E+00
  0.00000000E+00  0.00000000E+00  0.00000000E+00
  0.00000000E+00  0.00000000E+00  0.00000000E+00
  0.00000000E+00  0.00000000E+00  0.00000000E+00
  0.00000000E+00  0.00000000E+00  0.00000000E+00
  0.00000000E+00  0.00000000E+00  0.00000000E+00
  0.00000000E+00  0.00000000E+00  0.00000000E+00
  0.00000000E+00  0.00000000E+00  0.00000000E+00
