Automatic mesh
0
Gamma
  4  4  6
  0  0  0
