C  H  O  Pd
 1.0000000000000000
    12.2143708368485502    0.0000000000000000    0.0000000000000007
     0.0000000000000017   10.8116922467861709    0.0000000000000007
     0.0000000000000000    0.0000000000000000   30.6875744822424821
 C   H   O   Pd 
   2   3  66  64
Selective dynamics
Direct
  0.0866911843211366  0.3949297405260964  0.4807964601416110   T   T   T
  0.3748495906568703  0.4955669221957131  0.4729608042025090   T   T   T
  0.1178915309768462  0.3048142606544320  0.4688753211221171   T   T   T
  0.1127122496387594  0.4068007884924778  0.5152038395778220   T   T   T
 -0.0040746741359267  0.3939031876932823  0.4794964324020235   T   T   T
  0.0000001489023768  0.6253641828117400  0.1990385236877962   F   F   F
  0.9981687881022305  0.3780209814201434  0.3951869619835025   T   T   T
  0.0000007785774361  0.8746366631057728  0.1990387117510663   F   F   F
  0.0002897193707860  0.1203915708990864  0.3962927280688008   T   T   T
  0.2508814720502943  0.3746040436844734  0.2992056725444596   T   T   T
  0.0000000000000000  0.6250000000000000  0.0986326357059468   F   F   F
  0.7496537321308638  0.6209022174610762  0.3962961483657212   T   T   T
  0.0006302599497714  0.8745256308427437  0.2984953796474555   T   T   T
  0.2505763599762717  0.1248361400333683  0.2985137324537114   T   T   T
  0.7505049331763142  0.3743892097498550  0.2987047431331112   T   T   T
  0.5007327784329323  0.8744775104946286  0.2986692950278925   T   T   T
  0.5005349584984129  0.6248900045682276  0.2987745105287196   T   T   T
  0.9999691079974924  0.8789113290477186  0.3961659875971577   T   T   T
  0.0006227759036253  0.1243221623266836  0.2983329265965595   T   T   T
  1.0002968092211308  0.3742571429967140  0.2989205104172737   T   T   T
  0.5006276180072508  0.8792155744459385  0.3963127583679506   T   T   T
  0.9988903862729689  0.6208486027414587  0.3959013279308138   T   T   T
  0.0000003667133454  0.1253639748692094  0.1990386316366852   F   F   F
  0.0000002712633380  0.3746360819220366  0.1990386009744299   F   F   F
  0.2500000000000000  0.3750000000000000  0.0986326357059468   F   F   F
 -0.0000000000000000  0.8750000000000001  0.0986326357059468   F   F   F
  0.2499998638177366  0.3746354513558036  0.1990391137478614   F   F   F
  0.2500000000000000  0.1250000000000000  0.0986326357059468   F   F   F
  0.2500003118916107  0.1253643742758414  0.1990388468832426   F   F   F
  0.0000000000000000  0.3750000000000000  0.0986326357059468   F   F   F
  0.0000000000000000  0.1250000000000000  0.0986326357059468   F   F   F
  0.3821509081806278  0.4098541028806697  0.4950068903211244   T   T   T
  0.1326260123099103  0.4983700779318568  0.4592958589213983   T   T   T
  0.0003952045108968  0.6246139793843609  0.2990414244124089   T   T   T
  0.5009740092725596  0.6219285553407737  0.3966488094694607   T   T   T
  0.2495600464482185  0.6223171070781763  0.3962883815338117   T   T   T
  0.7500000000000000  0.1250000000000000  0.0986326357059468   F   F   F
  0.2500000725690806  0.8746359244060554  0.1990388968624472   F   F   F
  0.2500000575081164  0.6253646356490544  0.1990388586176256   F   F   F
  0.2508141499366268  0.8744442069317241  0.2986093785247012   T   T   T
  0.2504814426285194  0.6245799460021976  0.2991995446983211   T   T   T
  0.2503728010111371  0.8788597168025146  0.3960869528691165   T   T   T
  0.7500899343675834  0.8793772972766964  0.3962768352072669   T   T   T
  0.2500000000000000  0.6250000000000000  0.0986326357059468   F   F   F
  0.5000000000000000  0.3750000000000000  0.0986326357059468   F   F   F
  0.5000046432417443  0.1203149640578495  0.3965948438382338   T   T   T
  0.4999497766622719  0.3783643573407396  0.3965745614639599   T   T   T
  0.5005784707474832  0.1252907698276351  0.2987309091908077   T   T   T
  0.5003823401591253  0.3745488991133675  0.2989194217757006   T   T   T
  0.4999998368048840  0.1253637532206347  0.1990388322615649   F   F   F
  0.7500000000000000  0.3750000000000000  0.0986326357059468   F   F   F
  0.5000000000000000  0.1250000000000000  0.0986326357059468   F   F   F
  0.2500000000000000  0.8750000000000001  0.0986326357059468   F   F   F
  0.4999999938080711  0.3746360868658646  0.1990385922315757   F   F   F
  0.5000000000000000  0.8750000000000001  0.0986326357059468   F   F   F
  0.2503553528618039  0.1198228552687960  0.3962846286529221   T   T   T
  0.7500000114023815  0.1253633646095497  0.1990386859845709   F   F   F
  0.7500004982174803  0.3746360905691121  0.1990382815073973   F   F   F
  0.2516895363879335  0.3763087627489837  0.3961641692306883   T   T   T
  0.7498207414296899  0.3792675314678912  0.3961767591433271   T   T   T
  0.7503880039108433  0.1207793980084557  0.3965731828922333   T   T   T
  0.7500000000000000  0.8750000000000001  0.0986326357059468   F   F   F
  0.7505185740384778  0.1250299476703773  0.2985973245428840   T   T   T
  0.7500002014178647  0.8746343896298040  0.1990386967425212   F   F   F
  0.7500002133337712  0.6253633161861426  0.1990388060063935   F   F   F
  0.7502583978733485  0.8746615664317745  0.2985550197635184   T   T   T
  0.7503801929807489  0.6250572763606199  0.2986342179888027   T   T   T
  0.5000001784867202  0.6253637522044813  0.1990389446145577   F   F   F
  0.4999995794704318  0.8746354974934157  0.1990386872989469   F   F   F
  0.7500000000000000  0.6250000000000000  0.0986326357059468   F   F   F
  0.5000000000000000  0.6250000000000000  0.0986326357059468   F   F   F
  0.0000000644614895  0.7499997055339565  0.1487767856559003   F   F   F
  0.5003577057375268  0.7498091792484215  0.2492842767164082   T   T   T
  0.1251723373979731  0.4988873490286370  0.3943195404705061   T   T   T
  0.6250000000000000  0.0000000000000000  0.0986326357059468   F   F   F
  0.3754070589621127 -0.0006631846989166  0.3914209169023232   T   T   T
  0.2500002436688700  0.7499998371993483  0.1487767841964014   F   F   F
  0.2508465413418745  0.2486074812052919  0.3503787940918623   T   T   T
  0.2501190843529206  0.2501668025666617  0.2492665079906580   T   T   T
  0.2500000000000000  0.7500000000000000  0.0488797184302712   F   F   F
  0.3750000000000000  0.5000000000000000  0.0986326357059468   F   F   F
  0.5000000000000000  0.2500000000000000  0.0488797184302712   F   F   F
  0.5000000890861059  0.7499991063848873  0.1487764921061197   F   F   F
  0.6255047052080994 -0.0000046542796070  0.2975965678568511   T   T   T
  0.6250000000000000  0.5000000000000000  0.0986326357059468   F   F   F
  0.5000000000000000  0.7500000000000000  0.0488797184302712   F   F   F
  0.0008163698199278  0.7495202729047633  0.2492489220412192   T   T   T
  0.6253165986723347  1.0001477171642403  0.3915818370655796   T   T   T
  0.5002837822715015  0.2493503914648819  0.3508365279776138   T   T   T
  0.1254242952798718  0.4994813909023587  0.2994684075505442   T   T   T
  0.5001613162782620  0.2500401960262812  0.2493226786543714   T   T   T
  1.0002847928945116  0.7498624107305851  0.3504092682428530   T   T   T
  0.6250011512513076  0.9999984342009582  0.1993176556340738   F   F   F
  0.5000000412290440  0.2500002002978380  0.1487764123606149   F   F   F
  0.1250000000000000  0.5000000000000000  0.0986326357059468   F   F   F
  0.0000000000000000  0.2500000000000000  0.0488797184302712   F   F   F
  0.3750013085010481  0.9999996425241101  0.1993178715196733   F   F   F
  0.1250005006673170  0.4999996619028680  0.1993179793341455   F   F   F
  0.3750004864510694  0.5000000253507203  0.1993181014519463   F   F   F
  0.0006366247288745  0.2498538115266579  0.2491705192840597   T   T   T
  0.2500001827845806  0.2500004790494265  0.1487770501254799   F   F   F
  0.7501302682156483  0.2498756116154491  0.2492561213502470   T   T   T
  0.7500358915787994  0.7499005960973945  0.2492297409676126   T   T   T
  0.1249992154568337  0.0000000621413549  0.1993179005561505   F   F   F
  0.7499999695802716  0.7499987873488344  0.1487766346932499   F   F   F
  0.8749990435797278  0.9999988729247118  0.1993176942245059   F   F   F
  0.7500000714258059  0.2500001333654533  0.1487767298788664   F   F   F
  0.8754457948981293 -0.0003820881761686  0.2974766691612019   T   T   T
  0.1252191379677323 -0.0006905639466931  0.3913773488196345   T   T   T
  0.8750000000000000  0.0000000000000000  0.0986326357059468   F   F   F
  0.7500000000000000  0.2500000000000000  0.0488797184302712   F   F   F
  0.1250000000000000  0.0000000000000000  0.0986326357059468   F   F   F
  0.0000000000000000  0.7500000000000000  0.0488797184302712   F   F   F
  0.8740738473526168  0.5001281037589518  0.3910189321680108   T   T   T
  0.6245257934971240  0.4998474139476590  0.3916451113111452   T   T   T
  0.8752961547843173  0.4996614069225609  0.2977836270625406   T   T   T
  0.2500000000000000  0.2500000000000000  0.0488797184302712   F   F   F
  0.0000001104490266  0.2500003692293262  0.1487770372582357   F   F   F
  0.7502035796155414  0.2494972963271889  0.3507168412739795   T   T   T
  0.2500238536034089  0.7495207914539987  0.2493062951585418   T   T   T
  0.3757332657530475  0.4997627113891689  0.2982844752109680   T   T   T
  0.3750000000000000  0.0000000000000000  0.0986326357059468   F   F   F
  0.2498402189307673  0.7497045869592789  0.3504539308472785   T   T   T
  0.3750018999449048  0.5006727190299108  0.3926440238307944   T   T   T
  0.6255945785625772  0.4997098063241132  0.2977459794742227   T   T   T
  0.1257786383275402  0.9995087759632985  0.2975618150822071   T   T   T
  0.6249997369785575  0.5000005243672183  0.1993177510521300   F   F   F
  1.0000820396657177  0.2482738006927313  0.3500846833672903   T   T   T
  0.8750000000000000  0.5000000000000000  0.0986326357059468   F   F   F
  0.7500000000000000  0.7500000000000000  0.0488797184302712   F   F   F
  0.8749998623887097  0.5000001886345932  0.1993177285951360   F   F   F
  0.8751992884272987  0.9998401807911128  0.3914262126623817   T   T   T
  0.5011777710226784  0.7498722366425101  0.3506868475629176   T   T   T
  0.3757871156422123 -0.0002226213669565  0.2976167423793047   T   T   T
  0.7499171509099719  0.7500466575046645  0.3505907427090926   T   T   T
Cartesian
  0.0000000000000000  0.0000000000000000  0.0000000000000000
  0.0000000000000000  0.0000000000000000  0.0000000000000000
  0.0000000000000000  0.0000000000000000  0.0000000000000000
  0.0000000000000000  0.0000000000000000  0.0000000000000000
  0.0000000000000000  0.0000000000000000  0.0000000000000000
  0.0000000000000000  0.0000000000000000  0.0000000000000000
  0.0000000000000000  0.0000000000000000  0.0000000000000000
  0.0000000000000000  0.0000000000000000  0.0000000000000000
  0.0000000000000000  0.0000000000000000  0.0000000000000000
  0.0000000000000000  0.0000000000000000  0.0000000000000000
  0.0000000000000000  0.0000000000000000  0.0000000000000000
  0.0000000000000000  0.0000000000000000  0.0000000000000000
  0.0000000000000000  0.0000000000000000  0.0000000000000000
  0.0000000000000000  0.0000000000000000  0.0000000000000000
  0.0000000000000000  0.0000000000000000  0.0000000000000000
  0.0000000000000000  0.0000000000000000  0.0000000000000000
  0.0000000000000000  0.0000000000000000  0.0000000000000000
  0.0000000000000000  0.0000000000000000  0.0000000000000000
  0.0000000000000000  0.0000000000000000  0.0000000000000000
  0.0000000000000000  0.0000000000000000  0.0000000000000000
  0.0000000000000000  0.0000000000000000  0.0000000000000000
  0.0000000000000000  0.0000000000000000  0.0000000000000000
  0.0000000000000000  0.0000000000000000  0.0000000000000000
  0.0000000000000000  0.0000000000000000  0.0000000000000000
  0.0000000000000000  0.0000000000000000  0.0000000000000000
  0.0000000000000000  0.0000000000000000  0.0000000000000000
  0.0000000000000000  0.0000000000000000  0.0000000000000000
  0.0000000000000000  0.0000000000000000  0.0000000000000000
  0.0000000000000000  0.0000000000000000  0.0000000000000000
  0.0000000000000000  0.0000000000000000  0.0000000000000000
  0.0000000000000000  0.0000000000000000  0.0000000000000000
  0.0000000000000000  0.0000000000000000  0.0000000000000000
  0.0000000000000000  0.0000000000000000  0.0000000000000000
  0.0000000000000000  0.0000000000000000  0.0000000000000000
  0.0000000000000000  0.0000000000000000  0.0000000000000000
  0.0000000000000000  0.0000000000000000  0.0000000000000000
  0.0000000000000000  0.0000000000000000  0.0000000000000000
  0.0000000000000000  0.0000000000000000  0.0000000000000000
  0.0000000000000000  0.0000000000000000  0.0000000000000000
  0.0000000000000000  0.0000000000000000  0.0000000000000000
  0.0000000000000000  0.0000000000000000  0.0000000000000000
  0.0000000000000000  0.0000000000000000  0.0000000000000000
  0.0000000000000000  0.0000000000000000  0.0000000000000000
  0.0000000000000000  0.0000000000000000  0.0000000000000000
  0.0000000000000000  0.0000000000000000  0.0000000000000000
  0.0000000000000000  0.0000000000000000  0.0000000000000000
  0.0000000000000000  0.0000000000000000  0.0000000000000000
  0.0000000000000000  0.0000000000000000  0.0000000000000000
  0.0000000000000000  0.0000000000000000  0.0000000000000000
  0.0000000000000000  0.0000000000000000  0.0000000000000000
  0.0000000000000000  0.0000000000000000  0.0000000000000000
  0.0000000000000000  0.0000000000000000  0.0000000000000000
  0.0000000000000000  0.0000000000000000  0.0000000000000000
  0.0000000000000000  0.0000000000000000  0.0000000000000000
  0.0000000000000000  0.0000000000000000  0.0000000000000000
  0.0000000000000000  0.0000000000000000  0.0000000000000000
  0.0000000000000000  0.0000000000000000  0.0000000000000000
  0.0000000000000000  0.0000000000000000  0.0000000000000000
  0.0000000000000000  0.0000000000000000  0.0000000000000000
  0.0000000000000000  0.0000000000000000  0.0000000000000000
  0.0000000000000000  0.0000000000000000  0.0000000000000000
  0.0000000000000000  0.0000000000000000  0.0000000000000000
  0.0000000000000000  0.0000000000000000  0.0000000000000000
  0.0000000000000000  0.0000000000000000  0.0000000000000000
  0.0000000000000000  0.0000000000000000  0.0000000000000000
  0.0000000000000000  0.0000000000000000  0.0000000000000000
  0.0000000000000000  0.0000000000000000  0.0000000000000000
  0.0000000000000000  0.0000000000000000  0.0000000000000000
  0.0000000000000000  0.0000000000000000  0.0000000000000000
  0.0000000000000000  0.0000000000000000  0.0000000000000000
  0.0000000000000000  0.0000000000000000  0.0000000000000000
  0.0000000000000000  0.0000000000000000  0.0000000000000000
  0.0000000000000000  0.0000000000000000  0.0000000000000000
  0.0000000000000000  0.0000000000000000  0.0000000000000000
  0.0000000000000000  0.0000000000000000  0.0000000000000000
  0.0000000000000000  0.0000000000000000  0.0000000000000000
  0.0000000000000000  0.0000000000000000  0.0000000000000000
  0.0000000000000000  0.0000000000000000  0.0000000000000000
  0.0000000000000000  0.0000000000000000  0.0000000000000000
  0.0000000000000000  0.0000000000000000  0.0000000000000000
  0.0000000000000000  0.0000000000000000  0.0000000000000000
  0.0000000000000000  0.0000000000000000  0.0000000000000000
  0.0000000000000000  0.0000000000000000  0.0000000000000000
  0.0000000000000000  0.0000000000000000  0.0000000000000000
  0.0000000000000000  0.0000000000000000  0.0000000000000000
  0.0000000000000000  0.0000000000000000  0.0000000000000000
  0.0000000000000000  0.0000000000000000  0.0000000000000000
  0.0000000000000000  0.0000000000000000  0.0000000000000000
  0.0000000000000000  0.0000000000000000  0.0000000000000000
  0.0000000000000000  0.0000000000000000  0.0000000000000000
  0.0000000000000000  0.0000000000000000  0.0000000000000000
  0.0000000000000000  0.0000000000000000  0.0000000000000000
  0.0000000000000000  0.0000000000000000  0.0000000000000000
  0.0000000000000000  0.0000000000000000  0.0000000000000000
  0.0000000000000000  0.0000000000000000  0.0000000000000000
  0.0000000000000000  0.0000000000000000  0.0000000000000000
  0.0000000000000000  0.0000000000000000  0.0000000000000000
  0.0000000000000000  0.0000000000000000  0.0000000000000000
  0.0000000000000000  0.0000000000000000  0.0000000000000000
  0.0000000000000000  0.0000000000000000  0.0000000000000000
  0.0000000000000000  0.0000000000000000  0.0000000000000000
  0.0000000000000000  0.0000000000000000  0.0000000000000000
  0.0000000000000000  0.0000000000000000  0.0000000000000000
  0.0000000000000000  0.0000000000000000  0.0000000000000000
  0.0000000000000000  0.0000000000000000  0.0000000000000000
  0.0000000000000000  0.0000000000000000  0.0000000000000000
  0.0000000000000000  0.0000000000000000  0.0000000000000000
  0.0000000000000000  0.0000000000000000  0.0000000000000000
  0.0000000000000000  0.0000000000000000  0.0000000000000000
  0.0000000000000000  0.0000000000000000  0.0000000000000000
  0.0000000000000000  0.0000000000000000  0.0000000000000000
  0.0000000000000000  0.0000000000000000  0.0000000000000000
  0.0000000000000000  0.0000000000000000  0.0000000000000000
  0.0000000000000000  0.0000000000000000  0.0000000000000000
  0.0000000000000000  0.0000000000000000  0.0000000000000000
  0.0000000000000000  0.0000000000000000  0.0000000000000000
  0.0000000000000000  0.0000000000000000  0.0000000000000000
  0.0000000000000000  0.0000000000000000  0.0000000000000000
  0.0000000000000000  0.0000000000000000  0.0000000000000000
  0.0000000000000000  0.0000000000000000  0.0000000000000000
  0.0000000000000000  0.0000000000000000  0.0000000000000000
  0.0000000000000000  0.0000000000000000  0.0000000000000000
  0.0000000000000000  0.0000000000000000  0.0000000000000000
  0.0000000000000000  0.0000000000000000  0.0000000000000000
  0.0000000000000000  0.0000000000000000  0.0000000000000000
  0.0000000000000000  0.0000000000000000  0.0000000000000000
  0.0000000000000000  0.0000000000000000  0.0000000000000000
  0.0000000000000000  0.0000000000000000  0.0000000000000000
  0.0000000000000000  0.0000000000000000  0.0000000000000000
  0.0000000000000000  0.0000000000000000  0.0000000000000000
  0.0000000000000000  0.0000000000000000  0.0000000000000000
  0.0000000000000000  0.0000000000000000  0.0000000000000000
  0.0000000000000000  0.0000000000000000  0.0000000000000000
  0.0000000000000000  0.0000000000000000  0.0000000000000000
  0.0000000000000000  0.0000000000000000  0.0000000000000000
