C  H  O  Pd
 1.0000000000000000
    12.3034736924171124    0.0000000000000000    0.0000000000000000
     0.0000000000000000   12.3034736924171142    0.0000000000000000
     0.0000000000000000    0.0000000000000000   29.1654207465942434
 C   H   O   Pd 
   2   3  18  96
Selective dynamics
Direct
  0.5468645520522181  0.7878763006186853  0.4285275085331697   T   T   T
  0.8211714210130275  0.8087274423039370  0.3844805623761859   T   T   T
  0.5728197345974178  0.7025442247995193  0.4324728766768599   T   T   T
  0.6002432958146777  0.8413203067418403  0.4489189286673565   T   T   T
  0.4625795137908477  0.7969112293294557  0.4408891051957142   T   T   T
  0.5530229756948430  0.8230513626127416  0.3815952234626099   T   T   T
  0.8229732490037314  0.8343217563295683  0.4233627284234259   T   T   T
  0.6838976692437491  0.1369031956168232  0.3616436367536864   T   T   T
  0.1829106914789101  0.6346003435070161  0.3621345360002347   T   T   T
  0.4367725929142052  0.1339987013830047  0.3623192529409952   T   T   T
  0.4330499849800656  0.4392838247263294  0.3212437201574627   T   T   T
  0.6884483659052349  0.9452800957100593  0.3198603181180812   T   T   T
  0.1849253820471372  0.1365837614595513  0.3623862832820495   T   T   T
  0.1864327034439387  0.4415901129084681  0.3199434814083842   T   T   T
  0.9381207972691519  0.6269712884898003  0.3653868696039947   T   T   T
  0.6857210769924090  0.4418770082133869  0.3203278329855871   T   T   T
  0.9338024449259863  0.4369166849356534  0.3210804316580003   T   T   T
  0.9383996706848909  0.1344368120948352  0.3633615655671765   T   T   T
  0.9344364698413998  0.9407319854247770  0.3207769237360930   T   T   T
  0.6867824754688895  0.6288653820339073  0.3644453737111525   T   T   T
  0.4313614938089939  0.9393423588214213  0.3200257947195726   T   T   T
  0.1864913159142710  0.9419529487733047  0.3212363882058206   T   T   T
  0.4335491572454158  0.6310023864492345  0.3637935627355558   T   T   T
  0.9014022322729534  0.9025968950468749  0.2535541250738855   T   T   T
  0.2508868825073727  0.8490693741556978  0.1863980355246583   T   T   T
  0.0608768744112346  0.0415782468285375  0.3406198116674622   T   T   T
  0.1507236091547503  0.1489864169829936  0.1853656493630883   F   F   F
  0.9500000000000028  0.2500000000000000  0.0514307684100572   F   F   F
  0.8500000000000014  0.0499999999999972  0.0514307684100572   F   F   F
  0.2999999999999972  0.2000000000000028  0.1181313319610595   F   F   F
  0.1499999999999986  0.1499999999999986  0.0514307684100572   F   F   F
  0.5593609586804660  0.5414836869095336  0.3401270033507185   T   T   T
  0.8485330413376032  0.0512636254534289  0.1852339871257567   F   F   F
  0.9963218996126195  0.1058192503068523  0.2535546044029343   T   T   T
  0.1000000000000014  0.2999999999999972  0.1181313319610595   F   F   F
  0.1876540158504183  0.2810569204914946  0.3347703711602788   T   T   T
  0.9486127127564162  0.2506768571014975  0.1843632683220324   F   F   F
  0.0957633724657339  0.2966344795823471  0.2520631042739276   T   T   T
  0.0499999999999972  0.4500000000000027  0.0514307684100572   F   F   F
  0.2000000000000028  0.5000000000000000  0.1181313319610595   F   F   F
  0.0491193131827514  0.4512444611448465  0.1844626448581111   F   F   F
  0.0000000000000000  0.1000000000000014  0.1181313319610595   F   F   F
  0.3101174741333450  0.5429149006315559  0.3400515240995815   T   T   T
  0.1507252829162628  0.6489864416498848  0.1853659281879895   F   F   F
  0.3485341556527256  0.0512641898857512  0.1852337169709379   F   F   F
  0.9367236785662710  0.7761602154276424  0.3378237581427159   T   T   T
  0.4009216486791792  0.9027103068263362  0.2534172907633288   T   T   T
  0.1856357321519482  0.7808629441083988  0.3358580884762002   T   T   T
  0.3110569749373388  0.0439268247455754  0.3402469796163126   T   T   T
  0.8117874754929800  0.5394102317735814  0.3409388257998541   T   T   T
  0.6862362775947246  0.2815518823629941  0.3347051554886077   T   T   T
  0.9382905492704197  0.2745088903643108  0.3323952955443829   T   T   T
  0.4321682696462049  0.7754947419357452  0.3349046879234837   T   T   T
  0.0597887669620870  0.5392394892905096  0.3397730341707108   T   T   T
  0.5000000000000000  0.1000000000000014  0.1181313319610595   F   F   F
  0.6956370384837505  0.7828883446671614  0.3412325167559244   T   T   T
  0.8121361122701624  0.0475792502086932  0.3394607270457495   T   T   T
  0.8999999999999986  0.8999999999999986  0.1181313319610595   F   F   F
  0.9006343866176441  0.4032043714393033  0.2534757900734924   T   T   T
  0.2508481057454874  0.3493570367277716  0.1863241642409980   T   T   T
  0.2500000000000000  0.3500000000000014  0.0514307684100572   F   F   F
  0.2500000000000000  0.8500000000000014  0.0514307684100572   F   F   F
  0.4365878229562668  0.2752813958876834  0.3319295449968124   T   T   T
  0.4500000000000028  0.2500000000000000  0.0514307684100572   F   F   F
  0.4968934847536330  0.1056152173616057  0.2534196730254710   T   T   T
  0.5600559643369132  0.0410920757763035  0.3400344741032597   T   T   T
  0.1951389949765472  0.5010234273687075  0.2536643049161251   T   T   T
  0.8999999999999986  0.3999999999999986  0.1181313319610595   F   F   F
  0.3500000000000014  0.5499999999999972  0.0514307684100572   F   F   F
  0.1499999999999986  0.6499999999999986  0.0514307684100572   F   F   F
  0.5972908929632478  0.7971219945156487  0.2533995724616379   T   T   T
  0.7500000000000000  0.8500000000000014  0.0514307684100572   F   F   F
  0.7976301065112904  0.7019483025379609  0.2585914658149517   T   T   T
  0.2999999999999972  0.7000000000000028  0.1181313319610595   F   F   F
  0.6000000000000014  0.2999999999999972  0.1181313319610595   F   F   F
  0.7999999999999972  0.7000000000000028  0.1181313319610595   F   F   F
  0.6963260914384629 -0.0009942245084164  0.2533827693911194   T   T   T
  0.5491182374295687  0.9512475927721618  0.1844623188205349   F   F   F
  0.7000000000000027  0.0000000000000000  0.1181313319610595   F   F   F
  0.9500000000000028  0.7500000000000000  0.0514307684100572   F   F   F
  0.5499999999999972  0.9500000000000028  0.0514307684100572   F   F   F
  0.4486144413896602  0.7506743341769924  0.1843622545089304   F   F   F
  0.6499999999999986  0.6499999999999986  0.0514307684100572   F   F   F
  0.6000000000000014  0.7999999999999972  0.1181313319610595   F   F   F
  0.5499999999999972  0.4500000000000027  0.0514307684100572   F   F   F
  0.4486122021981009  0.2506766379109669  0.1843629363752118   F   F   F
  0.5951573395347832  0.2969875363979784  0.2520124497819435   T   T   T
  0.5000000000000000  0.6000000000000014  0.1181313319610595   F   F   F
  0.3485320028910852  0.5512631916718084  0.1852336449463447   F   F   F
  0.4968610378764600  0.6063597352562818  0.2530360124328778   T   T   T
  0.4500000000000028  0.7500000000000000  0.0514307684100572   F   F   F
  0.6507236918031661  0.6489854869807887  0.1853661340816861   F   F   F
  0.2980918520548131  0.1998053651488473  0.2573932650857396   T   T   T
  0.0491177240126065  0.9512405474851490  0.1844615703293516   F   F   F
  0.5491175178526683  0.4512445656232251  0.1844618875770611   F   F   F
  0.3500000000000014  0.0499999999999972  0.0514307684100572   F   F   F
  0.2994538760970101  0.7022890035478297  0.2590812028375105   T   T   T
  0.7508131263264731  0.8485583346044036  0.1864414737816063   T   T   T
  0.1948022076187256 -0.0015961787075471  0.2543066918697018   T   T   T
  0.2000000000000028  0.0000000000000000  0.1181313319610595   F   F   F
  0.0954757880773855  0.7964032072165306  0.2526105531092353   T   T   T
  0.9486106854241280  0.7506756416198153  0.1843625136127240   F   F   F
  0.1000000000000014  0.7999999999999972  0.1181313319610595   F   F   F
  0.3999999999999986  0.8999999999999986  0.1181313319610595   F   F   F
  0.9954066877129431  0.6064621655285981  0.2534825405596688   T   T   T
  0.7000000000000027  0.5000000000000000  0.1181313319610595   F   F   F
  0.8485338373677122  0.5512634687110046  0.1852339858465592   F   F   F
  0.8500000000000014  0.5499999999999972  0.0514307684100572   F   F   F
  0.4002886766515524  0.4035477253304909  0.2536548754391934   T   T   T
  0.7508162770400778  0.3493956824694985  0.1863043075745210   T   T   T
  0.3999999999999986  0.3999999999999986  0.1181313319610595   F   F   F
  0.7500000000000000  0.3500000000000014  0.0514307684100572   F   F   F
  0.7978280803023731  0.2007793795439408  0.2575362036946421   T   T   T
  0.6507246110173561  0.1489888581776777  0.1853660239556655   F   F   F
  0.7999999999999972  0.2000000000000028  0.1181313319610595   F   F   F
  0.6499999999999986  0.1499999999999986  0.0514307684100572   F   F   F
  0.6959040051263399  0.5004878995179226  0.2539130916063401   T   T   T
  0.0000000000000000  0.6000000000000014  0.1181313319610595   F   F   F
  0.0499999999999972  0.9500000000000028  0.0514307684100572   F   F   F
Cartesian
  0.0000000000000000  0.0000000000000000  0.0000000000000000
  0.0000000000000000  0.0000000000000000  0.0000000000000000
  0.0000000000000000  0.0000000000000000  0.0000000000000000
  0.0000000000000000  0.0000000000000000  0.0000000000000000
  0.0000000000000000  0.0000000000000000  0.0000000000000000
  0.0000000000000000  0.0000000000000000  0.0000000000000000
  0.0000000000000000  0.0000000000000000  0.0000000000000000
  0.0000000000000000  0.0000000000000000  0.0000000000000000
  0.0000000000000000  0.0000000000000000  0.0000000000000000
  0.0000000000000000  0.0000000000000000  0.0000000000000000
  0.0000000000000000  0.0000000000000000  0.0000000000000000
  0.0000000000000000  0.0000000000000000  0.0000000000000000
  0.0000000000000000  0.0000000000000000  0.0000000000000000
  0.0000000000000000  0.0000000000000000  0.0000000000000000
  0.0000000000000000  0.0000000000000000  0.0000000000000000
  0.0000000000000000  0.0000000000000000  0.0000000000000000
  0.0000000000000000  0.0000000000000000  0.0000000000000000
  0.0000000000000000  0.0000000000000000  0.0000000000000000
  0.0000000000000000  0.0000000000000000  0.0000000000000000
  0.0000000000000000  0.0000000000000000  0.0000000000000000
  0.0000000000000000  0.0000000000000000  0.0000000000000000
  0.0000000000000000  0.0000000000000000  0.0000000000000000
  0.0000000000000000  0.0000000000000000  0.0000000000000000
  0.0000000000000000  0.0000000000000000  0.0000000000000000
  0.0000000000000000  0.0000000000000000  0.0000000000000000
  0.0000000000000000  0.0000000000000000  0.0000000000000000
  0.0000000000000000  0.0000000000000000  0.0000000000000000
  0.0000000000000000  0.0000000000000000  0.0000000000000000
  0.0000000000000000  0.0000000000000000  0.0000000000000000
  0.0000000000000000  0.0000000000000000  0.0000000000000000
  0.0000000000000000  0.0000000000000000  0.0000000000000000
  0.0000000000000000  0.0000000000000000  0.0000000000000000
  0.0000000000000000  0.0000000000000000  0.0000000000000000
  0.0000000000000000  0.0000000000000000  0.0000000000000000
  0.0000000000000000  0.0000000000000000  0.0000000000000000
  0.0000000000000000  0.0000000000000000  0.0000000000000000
  0.0000000000000000  0.0000000000000000  0.0000000000000000
  0.0000000000000000  0.0000000000000000  0.0000000000000000
  0.0000000000000000  0.0000000000000000  0.0000000000000000
  0.0000000000000000  0.0000000000000000  0.0000000000000000
  0.0000000000000000  0.0000000000000000  0.0000000000000000
  0.0000000000000000  0.0000000000000000  0.0000000000000000
  0.0000000000000000  0.0000000000000000  0.0000000000000000
  0.0000000000000000  0.0000000000000000  0.0000000000000000
  0.0000000000000000  0.0000000000000000  0.0000000000000000
  0.0000000000000000  0.0000000000000000  0.0000000000000000
  0.0000000000000000  0.0000000000000000  0.0000000000000000
  0.0000000000000000  0.0000000000000000  0.0000000000000000
  0.0000000000000000  0.0000000000000000  0.0000000000000000
  0.0000000000000000  0.0000000000000000  0.0000000000000000
  0.0000000000000000  0.0000000000000000  0.0000000000000000
  0.0000000000000000  0.0000000000000000  0.0000000000000000
  0.0000000000000000  0.0000000000000000  0.0000000000000000
  0.0000000000000000  0.0000000000000000  0.0000000000000000
  0.0000000000000000  0.0000000000000000  0.0000000000000000
  0.0000000000000000  0.0000000000000000  0.0000000000000000
  0.0000000000000000  0.0000000000000000  0.0000000000000000
  0.0000000000000000  0.0000000000000000  0.0000000000000000
  0.0000000000000000  0.0000000000000000  0.0000000000000000
  0.0000000000000000  0.0000000000000000  0.0000000000000000
  0.0000000000000000  0.0000000000000000  0.0000000000000000
  0.0000000000000000  0.0000000000000000  0.0000000000000000
  0.0000000000000000  0.0000000000000000  0.0000000000000000
  0.0000000000000000  0.0000000000000000  0.0000000000000000
  0.0000000000000000  0.0000000000000000  0.0000000000000000
  0.0000000000000000  0.0000000000000000  0.0000000000000000
  0.0000000000000000  0.0000000000000000  0.0000000000000000
  0.0000000000000000  0.0000000000000000  0.0000000000000000
  0.0000000000000000  0.0000000000000000  0.0000000000000000
  0.0000000000000000  0.0000000000000000  0.0000000000000000
  0.0000000000000000  0.0000000000000000  0.0000000000000000
  0.0000000000000000  0.0000000000000000  0.0000000000000000
  0.0000000000000000  0.0000000000000000  0.0000000000000000
  0.0000000000000000  0.0000000000000000  0.0000000000000000
  0.0000000000000000  0.0000000000000000  0.0000000000000000
  0.0000000000000000  0.0000000000000000  0.0000000000000000
  0.0000000000000000  0.0000000000000000  0.0000000000000000
  0.0000000000000000  0.0000000000000000  0.0000000000000000
  0.0000000000000000  0.0000000000000000  0.0000000000000000
  0.0000000000000000  0.0000000000000000  0.0000000000000000
  0.0000000000000000  0.0000000000000000  0.0000000000000000
  0.0000000000000000  0.0000000000000000  0.0000000000000000
  0.0000000000000000  0.0000000000000000  0.0000000000000000
  0.0000000000000000  0.0000000000000000  0.0000000000000000
  0.0000000000000000  0.0000000000000000  0.0000000000000000
  0.0000000000000000  0.0000000000000000  0.0000000000000000
  0.0000000000000000  0.0000000000000000  0.0000000000000000
  0.0000000000000000  0.0000000000000000  0.0000000000000000
  0.0000000000000000  0.0000000000000000  0.0000000000000000
  0.0000000000000000  0.0000000000000000  0.0000000000000000
  0.0000000000000000  0.0000000000000000  0.0000000000000000
  0.0000000000000000  0.0000000000000000  0.0000000000000000
  0.0000000000000000  0.0000000000000000  0.0000000000000000
  0.0000000000000000  0.0000000000000000  0.0000000000000000
  0.0000000000000000  0.0000000000000000  0.0000000000000000
  0.0000000000000000  0.0000000000000000  0.0000000000000000
  0.0000000000000000  0.0000000000000000  0.0000000000000000
  0.0000000000000000  0.0000000000000000  0.0000000000000000
  0.0000000000000000  0.0000000000000000  0.0000000000000000
  0.0000000000000000  0.0000000000000000  0.0000000000000000
  0.0000000000000000  0.0000000000000000  0.0000000000000000
  0.0000000000000000  0.0000000000000000  0.0000000000000000
  0.0000000000000000  0.0000000000000000  0.0000000000000000
  0.0000000000000000  0.0000000000000000  0.0000000000000000
  0.0000000000000000  0.0000000000000000  0.0000000000000000
  0.0000000000000000  0.0000000000000000  0.0000000000000000
  0.0000000000000000  0.0000000000000000  0.0000000000000000
  0.0000000000000000  0.0000000000000000  0.0000000000000000
  0.0000000000000000  0.0000000000000000  0.0000000000000000
  0.0000000000000000  0.0000000000000000  0.0000000000000000
  0.0000000000000000  0.0000000000000000  0.0000000000000000
  0.0000000000000000  0.0000000000000000  0.0000000000000000
  0.0000000000000000  0.0000000000000000  0.0000000000000000
  0.0000000000000000  0.0000000000000000  0.0000000000000000
  0.0000000000000000  0.0000000000000000  0.0000000000000000
  0.0000000000000000  0.0000000000000000  0.0000000000000000
  0.0000000000000000  0.0000000000000000  0.0000000000000000
  0.0000000000000000  0.0000000000000000  0.0000000000000000
  0.0000000000000000  0.0000000000000000  0.0000000000000000
