C  H  O  Pd
 1.0000000000000000
    12.3034736924171124    0.0000000000000000    0.0000000000000000
     0.0000000000000000   12.3034736924171142    0.0000000000000000
     0.0000000000000000    0.0000000000000000   29.1654207465942434
 C   H   O   Pd 
   2   3  18  96
Selective dynamics
Direct
  0.3348787751008831  0.2893786656899221  0.4289310569468598   T   T   T
  0.0537913125865048  0.3105337657064128  0.3852329832551747   T   T   T
  0.3165632913343629  0.2018699224193195  0.4327565097621602   T   T   T
  0.4183917859458501  0.3058168000422534  0.4410236154629786   T   T   T
  0.2771495572719235  0.3377720974021904  0.4496169185246648   T   T   T
  0.3254093294328061  0.3250823899104242  0.3822028855588981   T   T   T
  0.0505131281935400  0.3326575542491030  0.4244958529701022   T   T   T
  0.6876108756942862  0.1376138536750007  0.3616633688883637   T   T   T
  0.1893073114836455  0.6401743274677633  0.3622905119793950   T   T   T
  0.4426696557770094  0.1346961299247589  0.3628014261549186   T   T   T
  0.4383492425378065  0.4428489745044727  0.3190931636756976   T   T   T
  0.6894313076753422  0.9440425291603884  0.3199197484195719   T   T   T
  0.1848809425757432  0.1322496435148578  0.3646371732571720   T   T   T
  0.1878725668613983  0.4487780120225663  0.3206653613295870   T   T   T
  0.9391083843865322  0.6378305827289311  0.3638957969493204   T   T   T
  0.6912498558193343  0.4447886096105119  0.3214510980295924   T   T   T
  0.9358802127812720  0.4436356691611418  0.3209410894883094   T   T   T
  0.9376219978023873  0.1295029792273128  0.3651622854499046   T   T   T
  0.9351813602452880  0.9398437280316240  0.3209582474453509   T   T   T
  0.6875285277254487  0.6390950727304292  0.3625976818862230   T   T   T
  0.4352026743951847  0.9418847278359839  0.3207250936965713   T   T   T
  0.1900861675503982  0.9449997848778198  0.3205281296665300   T   T   T
  0.4413482199795028  0.6367656924335668  0.3620254193804364   T   T   T
  0.9009736397888178  0.9034297247816512  0.2534597802418206   T   T   T
  0.2507783318816801  0.8491393656908595  0.1863830286838723   T   T   T
  0.0618242164799165  0.0401967204837114  0.3404839553012136   T   T   T
  0.1507236091547503  0.1489864169829936  0.1853656493630883   F   F   F
  0.9500000000000028  0.2500000000000000  0.0514307684100572   F   F   F
  0.8500000000000014  0.0499999999999972  0.0514307684100572   F   F   F
  0.2999999999999972  0.2000000000000028  0.1181313319610595   F   F   F
  0.1499999999999986  0.1499999999999986  0.0514307684100572   F   F   F
  0.5643333053633512  0.5438946216532697  0.3398758132490107   T   T   T
  0.8485330413376032  0.0512636254534289  0.1852339871257567   F   F   F
  0.9973337996344771  0.1065262388629161  0.2532300492941802   T   T   T
  0.1000000000000014  0.2999999999999972  0.1181313319610595   F   F   F
  0.1816422377979451  0.2875471907207126  0.3424880781704346   T   T   T
  0.9486127127564162  0.2506768571014975  0.1843632683220324   F   F   F
  0.0968804769592898  0.2969758115131782  0.2537985238361680   T   T   T
  0.0499999999999972  0.4500000000000027  0.0514307684100572   F   F   F
  0.2000000000000028  0.5000000000000000  0.1181313319610595   F   F   F
  0.0491193131827514  0.4512444611448465  0.1844626448581111   F   F   F
  0.0000000000000000  0.1000000000000014  0.1181313319610595   F   F   F
  0.3153504590964313  0.5472565198313456  0.3396626406635637   T   T   T
  0.1507252829162628  0.6489864416498848  0.1853659281879895   F   F   F
  0.3485341556527256  0.0512641898857512  0.1852337169709379   F   F   F
  0.9385210466676328  0.7774146514103447  0.3325224587687764   T   T   T
  0.4008690617306592  0.9030702736317617  0.2533903604616540   T   T   T
  0.1919041176704882  0.7846888266792165  0.3350886435070108   T   T   T
  0.3139960428110627  0.0475117594818553  0.3402339182769069   T   T   T
  0.8144357993170005  0.5473809079530926  0.3410092444157924   T   T   T
  0.6922585291904542  0.2837923682611672  0.3355255143612650   T   T   T
  0.9407840548830488  0.2788806519088542  0.3378574463700438   T   T   T
  0.4400397029817811  0.7779937422730384  0.3317215433470575   T   T   T
  0.0628849752758378  0.5480598237074934  0.3401619074116368   T   T   T
  0.5000000000000000  0.1000000000000014  0.1181313319610595   F   F   F
  0.6903818466665576  0.7836182429897092  0.3349038530060300   T   T   T
  0.8133750650913127  0.0448586229114965  0.3396661871754595   T   T   T
  0.8999999999999986  0.8999999999999986  0.1181313319610595   F   F   F
  0.9023381246041285  0.4025499450655750  0.2539175790307832   T   T   T
  0.2504802372409100  0.3486206765405288  0.1864133017962749   T   T   T
  0.2500000000000000  0.3500000000000014  0.0514307684100572   F   F   F
  0.2500000000000000  0.8500000000000014  0.0514307684100572   F   F   F
  0.4439802014841812  0.2793742418621410  0.3339807579725331   T   T   T
  0.4500000000000028  0.2500000000000000  0.0514307684100572   F   F   F
  0.4951949443209593  0.1067052491245596  0.2533207480774365   T   T   T
  0.5631992147306156  0.0428829565410235  0.3392405772828470   T   T   T
  0.1955657310870607  0.4987154013425791  0.2536268485646798   T   T   T
  0.8999999999999986  0.3999999999999986  0.1181313319610595   F   F   F
  0.3500000000000014  0.5499999999999972  0.0514307684100572   F   F   F
  0.1499999999999986  0.6499999999999986  0.0514307684100572   F   F   F
  0.5966036439597342  0.7971695180879685  0.2521793138905594   T   T   T
  0.7500000000000000  0.8500000000000014  0.0514307684100572   F   F   F
  0.7986661883644322  0.7003540099251750  0.2576101958274356   T   T   T
  0.2999999999999972  0.7000000000000028  0.1181313319610595   F   F   F
  0.6000000000000014  0.2999999999999972  0.1181313319610595   F   F   F
  0.7999999999999972  0.7000000000000028  0.1181313319610595   F   F   F
  0.6959196524514270  0.0010255741483181  0.2534642487573029   T   T   T
  0.5491182374295687  0.9512475927721618  0.1844623188205349   F   F   F
  0.7000000000000027  0.0000000000000000  0.1181313319610595   F   F   F
  0.9500000000000028  0.7500000000000000  0.0514307684100572   F   F   F
  0.5499999999999972  0.9500000000000028  0.0514307684100572   F   F   F
  0.4486144413896602  0.7506743341769924  0.1843622545089304   F   F   F
  0.6499999999999986  0.6499999999999986  0.0514307684100572   F   F   F
  0.6000000000000014  0.7999999999999972  0.1181313319610595   F   F   F
  0.5499999999999972  0.4500000000000027  0.0514307684100572   F   F   F
  0.4486122021981009  0.2506766379109669  0.1843629363752118   F   F   F
  0.5948643889117414  0.2966654206926842  0.2534227070018478   T   T   T
  0.5000000000000000  0.6000000000000014  0.1181313319610595   F   F   F
  0.3485320028910852  0.5512631916718084  0.1852336449463447   F   F   F
  0.4976780691772316  0.6064772694612790  0.2531348825777661   T   T   T
  0.4500000000000028  0.7500000000000000  0.0514307684100572   F   F   F
  0.6507236918031661  0.6489854869807887  0.1853661340816861   F   F   F
  0.2970496731403129  0.2020481820393481  0.2581004257923741   T   T   T
  0.0491177240126065  0.9512405474851490  0.1844615703293516   F   F   F
  0.5491175178526683  0.4512445656232251  0.1844618875770611   F   F   F
  0.3500000000000014  0.0499999999999972  0.0514307684100572   F   F   F
  0.2984505820739204  0.7001491344552895  0.2577002586243525   T   T   T
  0.7508574334747469  0.8493432202828557  0.1862510597714771   T   T   T
  0.1956551395266503  0.0001257832556529  0.2538543942724706   T   T   T
  0.2000000000000028  0.0000000000000000  0.1181313319610595   F   F   F
  0.0961503790712795  0.7965307270134366  0.2525300377879721   T   T   T
  0.9486106854241280  0.7506756416198153  0.1843625136127240   F   F   F
  0.1000000000000014  0.7999999999999972  0.1181313319610595   F   F   F
  0.3999999999999986  0.8999999999999986  0.1181313319610595   F   F   F
  0.9968535967445056  0.6056584667873059  0.2530862254814606   T   T   T
  0.7000000000000027  0.5000000000000000  0.1181313319610595   F   F   F
  0.8485338373677122  0.5512634687110046  0.1852339858465592   F   F   F
  0.8500000000000014  0.5499999999999972  0.0514307684100572   F   F   F
  0.4005705714463721  0.4036894875358774  0.2530269761455175   T   T   T
  0.7505451757235999  0.3491274508316244  0.1867531525815669   T   T   T
  0.3999999999999986  0.3999999999999986  0.1181313319610595   F   F   F
  0.7500000000000000  0.3500000000000014  0.0514307684100572   F   F   F
  0.7994684104517216  0.2022864000055679  0.2580801374724583   T   T   T
  0.6507246110173561  0.1489888581776777  0.1853660239556655   F   F   F
  0.7999999999999972  0.2000000000000028  0.1181313319610595   F   F   F
  0.6499999999999986  0.1499999999999986  0.0514307684100572   F   F   F
  0.6964496285579360  0.4986717662192540  0.2543297824115247   T   T   T
  0.0000000000000000  0.6000000000000014  0.1181313319610595   F   F   F
  0.0499999999999972  0.9500000000000028  0.0514307684100572   F   F   F
Cartesian
  0.0000000000000000  0.0000000000000000  0.0000000000000000
  0.0000000000000000  0.0000000000000000  0.0000000000000000
  0.0000000000000000  0.0000000000000000  0.0000000000000000
  0.0000000000000000  0.0000000000000000  0.0000000000000000
  0.0000000000000000  0.0000000000000000  0.0000000000000000
  0.0000000000000000  0.0000000000000000  0.0000000000000000
  0.0000000000000000  0.0000000000000000  0.0000000000000000
  0.0000000000000000  0.0000000000000000  0.0000000000000000
  0.0000000000000000  0.0000000000000000  0.0000000000000000
  0.0000000000000000  0.0000000000000000  0.0000000000000000
  0.0000000000000000  0.0000000000000000  0.0000000000000000
  0.0000000000000000  0.0000000000000000  0.0000000000000000
  0.0000000000000000  0.0000000000000000  0.0000000000000000
  0.0000000000000000  0.0000000000000000  0.0000000000000000
  0.0000000000000000  0.0000000000000000  0.0000000000000000
  0.0000000000000000  0.0000000000000000  0.0000000000000000
  0.0000000000000000  0.0000000000000000  0.0000000000000000
  0.0000000000000000  0.0000000000000000  0.0000000000000000
  0.0000000000000000  0.0000000000000000  0.0000000000000000
  0.0000000000000000  0.0000000000000000  0.0000000000000000
  0.0000000000000000  0.0000000000000000  0.0000000000000000
  0.0000000000000000  0.0000000000000000  0.0000000000000000
  0.0000000000000000  0.0000000000000000  0.0000000000000000
  0.0000000000000000  0.0000000000000000  0.0000000000000000
  0.0000000000000000  0.0000000000000000  0.0000000000000000
  0.0000000000000000  0.0000000000000000  0.0000000000000000
  0.0000000000000000  0.0000000000000000  0.0000000000000000
  0.0000000000000000  0.0000000000000000  0.0000000000000000
  0.0000000000000000  0.0000000000000000  0.0000000000000000
  0.0000000000000000  0.0000000000000000  0.0000000000000000
  0.0000000000000000  0.0000000000000000  0.0000000000000000
  0.0000000000000000  0.0000000000000000  0.0000000000000000
  0.0000000000000000  0.0000000000000000  0.0000000000000000
  0.0000000000000000  0.0000000000000000  0.0000000000000000
  0.0000000000000000  0.0000000000000000  0.0000000000000000
  0.0000000000000000  0.0000000000000000  0.0000000000000000
  0.0000000000000000  0.0000000000000000  0.0000000000000000
  0.0000000000000000  0.0000000000000000  0.0000000000000000
  0.0000000000000000  0.0000000000000000  0.0000000000000000
  0.0000000000000000  0.0000000000000000  0.0000000000000000
  0.0000000000000000  0.0000000000000000  0.0000000000000000
  0.0000000000000000  0.0000000000000000  0.0000000000000000
  0.0000000000000000  0.0000000000000000  0.0000000000000000
  0.0000000000000000  0.0000000000000000  0.0000000000000000
  0.0000000000000000  0.0000000000000000  0.0000000000000000
  0.0000000000000000  0.0000000000000000  0.0000000000000000
  0.0000000000000000  0.0000000000000000  0.0000000000000000
  0.0000000000000000  0.0000000000000000  0.0000000000000000
  0.0000000000000000  0.0000000000000000  0.0000000000000000
  0.0000000000000000  0.0000000000000000  0.0000000000000000
  0.0000000000000000  0.0000000000000000  0.0000000000000000
  0.0000000000000000  0.0000000000000000  0.0000000000000000
  0.0000000000000000  0.0000000000000000  0.0000000000000000
  0.0000000000000000  0.0000000000000000  0.0000000000000000
  0.0000000000000000  0.0000000000000000  0.0000000000000000
  0.0000000000000000  0.0000000000000000  0.0000000000000000
  0.0000000000000000  0.0000000000000000  0.0000000000000000
  0.0000000000000000  0.0000000000000000  0.0000000000000000
  0.0000000000000000  0.0000000000000000  0.0000000000000000
  0.0000000000000000  0.0000000000000000  0.0000000000000000
  0.0000000000000000  0.0000000000000000  0.0000000000000000
  0.0000000000000000  0.0000000000000000  0.0000000000000000
  0.0000000000000000  0.0000000000000000  0.0000000000000000
  0.0000000000000000  0.0000000000000000  0.0000000000000000
  0.0000000000000000  0.0000000000000000  0.0000000000000000
  0.0000000000000000  0.0000000000000000  0.0000000000000000
  0.0000000000000000  0.0000000000000000  0.0000000000000000
  0.0000000000000000  0.0000000000000000  0.0000000000000000
  0.0000000000000000  0.0000000000000000  0.0000000000000000
  0.0000000000000000  0.0000000000000000  0.0000000000000000
  0.0000000000000000  0.0000000000000000  0.0000000000000000
  0.0000000000000000  0.0000000000000000  0.0000000000000000
  0.0000000000000000  0.0000000000000000  0.0000000000000000
  0.0000000000000000  0.0000000000000000  0.0000000000000000
  0.0000000000000000  0.0000000000000000  0.0000000000000000
  0.0000000000000000  0.0000000000000000  0.0000000000000000
  0.0000000000000000  0.0000000000000000  0.0000000000000000
  0.0000000000000000  0.0000000000000000  0.0000000000000000
  0.0000000000000000  0.0000000000000000  0.0000000000000000
  0.0000000000000000  0.0000000000000000  0.0000000000000000
  0.0000000000000000  0.0000000000000000  0.0000000000000000
  0.0000000000000000  0.0000000000000000  0.0000000000000000
  0.0000000000000000  0.0000000000000000  0.0000000000000000
  0.0000000000000000  0.0000000000000000  0.0000000000000000
  0.0000000000000000  0.0000000000000000  0.0000000000000000
  0.0000000000000000  0.0000000000000000  0.0000000000000000
  0.0000000000000000  0.0000000000000000  0.0000000000000000
  0.0000000000000000  0.0000000000000000  0.0000000000000000
  0.0000000000000000  0.0000000000000000  0.0000000000000000
  0.0000000000000000  0.0000000000000000  0.0000000000000000
  0.0000000000000000  0.0000000000000000  0.0000000000000000
  0.0000000000000000  0.0000000000000000  0.0000000000000000
  0.0000000000000000  0.0000000000000000  0.0000000000000000
  0.0000000000000000  0.0000000000000000  0.0000000000000000
  0.0000000000000000  0.0000000000000000  0.0000000000000000
  0.0000000000000000  0.0000000000000000  0.0000000000000000
  0.0000000000000000  0.0000000000000000  0.0000000000000000
  0.0000000000000000  0.0000000000000000  0.0000000000000000
  0.0000000000000000  0.0000000000000000  0.0000000000000000
  0.0000000000000000  0.0000000000000000  0.0000000000000000
  0.0000000000000000  0.0000000000000000  0.0000000000000000
  0.0000000000000000  0.0000000000000000  0.0000000000000000
  0.0000000000000000  0.0000000000000000  0.0000000000000000
  0.0000000000000000  0.0000000000000000  0.0000000000000000
  0.0000000000000000  0.0000000000000000  0.0000000000000000
  0.0000000000000000  0.0000000000000000  0.0000000000000000
  0.0000000000000000  0.0000000000000000  0.0000000000000000
  0.0000000000000000  0.0000000000000000  0.0000000000000000
  0.0000000000000000  0.0000000000000000  0.0000000000000000
  0.0000000000000000  0.0000000000000000  0.0000000000000000
  0.0000000000000000  0.0000000000000000  0.0000000000000000
  0.0000000000000000  0.0000000000000000  0.0000000000000000
  0.0000000000000000  0.0000000000000000  0.0000000000000000
  0.0000000000000000  0.0000000000000000  0.0000000000000000
  0.0000000000000000  0.0000000000000000  0.0000000000000000
  0.0000000000000000  0.0000000000000000  0.0000000000000000
  0.0000000000000000  0.0000000000000000  0.0000000000000000
  0.0000000000000000  0.0000000000000000  0.0000000000000000
  0.0000000000000000  0.0000000000000000  0.0000000000000000
