C  H  O  Pd
 1.0000000000000000
    11.0046904376558210    0.0000000000000000    0.0000000000000000
     0.0000000000000000   11.0046904376558210    0.0000000000000000
     0.0000000000000000    0.0000000000000000   27.7814912333251840
 C   H   O   Pd 
   2   3   2  80
Selective dynamics
Direct
  0.3760667047263272  0.7521244422522990  0.3921544118746731   T   T   T
  0.3701903855550868  0.3355348827934137  0.4327551291284402   T   T   T
  0.2914233132236708  0.3170562888053902  0.4563878654938705   T   T   T
  0.3593480894117771  0.4279686801784745  0.4167761186857426   T   T   T
  0.4546484093030955  0.3335322669454510  0.4542820082497271   T   T   T
  0.3754540184472717  0.7526576188384266  0.4349604261031910   T   T   T
  0.3754624794186919  0.2428340905160827  0.3966307548089663   T   T   T
  0.7500000000000000  0.5000000000000000  0.0539927820073487   F   F   F
  0.1250000000000000  0.3750000000000000  0.1240168419828507   F   F   F
  0.8750000000000000  0.1250000000000000  0.1240168419828507   F   F   F
  0.6250000000000001  0.1250000000000000  0.1240168419828507   F   F   F
  0.0000000000000000  0.5000000000000000  0.0539927820073487   F   F   F
  0.2500000000000000  0.0000000000000000  0.0539927820073487   F   F   F
  0.5000000000000000  0.0000000000000000  0.0539927820073487   F   F   F
  0.0000000000000000  0.7500000000000000  0.0539927820073487   F   F   F
  0.7500000000000000  0.0000000000000000  0.0539927820073487   F   F   F
  0.2507260300569845  0.2498356562508423  0.1955390771044228   T   T   T
  0.5000000000000000  0.2500000000000000  0.0539927820073487   F   F   F
  0.7500000000000000  0.2500000000000000  0.0539927820073487   F   F   F
  0.2500000000000000  0.5000000000000000  0.0539927820073487   F   F   F
  0.3750000000000000  0.1250000000000000  0.1240168419828507   F   F   F
  0.5000000000000000  0.5000000000000000  0.0539927820073487   F   F   F
  0.0000000000000000  0.2500000000000000  0.0539927820073487   F   F   F
  0.2500000000000000  0.2500000000000000  0.0539927820073487   F   F   F
  0.0010592169401294  0.2500253060533337  0.1956502999035529   T   T   T
  0.2500000000000000  0.7500000000000000  0.0539927820073487   F   F   F
  0.7515777451459006  0.7498404359455038  0.3384979361362137   T   T   T
  0.5029494639079803  0.7511373095244948  0.3420903956860543   T   T   T
  0.3750000000000000  0.3750000000000000  0.1240168419828507   F   F   F
  0.6250000000000001  0.3750000000000000  0.1240168419828507   F   F   F
  0.8750000000000000  0.3750000000000000  0.1240168419828507   F   F   F
  0.1250000000000000  0.6250000000000001  0.1240168419828507   F   F   F
  0.3750000000000000  0.6250000000000001  0.1240168419828507   F   F   F
  0.6250000000000001  0.6250000000000001  0.1240168419828507   F   F   F
  0.8750000000000000  0.6250000000000001  0.1240168419828507   F   F   F
  0.1250000000000000  0.8750000000000000  0.1240168419828507   F   F   F
  0.3750000000000000  0.8750000000000000  0.1240168419828507   F   F   F
  0.6250000000000001  0.8750000000000000  0.1240168419828507   F   F   F
  0.8750000000000000  0.8750000000000000  0.1240168419828507   F   F   F
  0.0003437983464946  0.0003521732927778  0.1953652419419777   F   F   F
  0.2498864879519853  0.0000971881733101  0.1954657051511380   F   F   F
  0.7502828452361570  0.0005872313441004  0.1953625591507258   F   F   F
  0.5007492266580021  0.0004584687035190  0.1954163046274357   F   F   F
  0.0000000000000000  0.0000000000000000  0.0539927820073487   F   F   F
  0.1250000000000000  0.1250000000000000  0.1240168419828507   F   F   F
  0.2501347770958333  0.4995230707093617  0.1954814521508880   T   T   T
  0.3760330898689248  0.1255213804141651  0.2671194888029966   T   T   T
  0.5006055918382623  0.4995932200847706  0.1955074312646677   T   T   T
  0.7503746828674839  0.4997065170625020  0.1953733343511601   F   F   F
  0.0005894355112163  0.7500008518818464  0.1955109335640781   T   T   T
  0.2503954118902926  0.7498455672888852  0.1954250038564926   F   F   F
  0.4999654757630998  0.7500004908318308  0.1954446781225594   F   F   F
  0.7496515892346901  0.7500391642644463  0.1955528072546986   T   T   T
  0.8759178502185498  0.6251264070957334  0.2667579027945438   T   T   T
  0.1265722877213748  0.1259765973454426  0.2677672307396355   T   T   T
  0.6251464287892712  0.6255527103028820  0.2673433659983748   T   T   T
  0.8758724200184537  0.1252858264340236  0.2667801241039228   T   T   T
  0.1267398506472250  0.3740556636112767  0.2677114800921665   T   T   T
  0.3758248425535808  0.3747273885766630  0.2673483358859834   T   T   T
  0.6252069673371705  0.3738855804778681  0.2678273242888485   T   T   T
  0.8761898028877362  0.3750121184040941  0.2668112179203567   T   T   T
  0.1264670686037522  0.6251722519041423  0.2672781646305835   T   T   T
  0.3757215671268083  0.6251176744847652  0.2670271096136131   T   T   T
  0.6250810303339337  0.1261403284369718  0.2677747344723659   T   T   T
  0.7500000000000000  0.7500000000000000  0.0539927820073487   F   F   F
  0.3758013840287040  0.8752323401861838  0.2669306880321283   T   T   T
  0.0012032255855760  0.7507260315665295  0.3386379246109249   T   T   T
  0.5005395943826092  0.2500651588965634  0.1955670483627976   T   T   T
  0.7501046582650330  0.2500912717535638  0.1957089484998988   T   T   T
  0.0003749810845053  0.4998696529781222  0.1953215751657950   F   F   F
  0.2457774416658580  0.2489562514128215  0.3410234611505407   T   T   T
  0.6249527896786526  0.8747874103268106  0.2672093634442921   T   T   T
  0.8755453014192591  0.8750346217311126  0.2666613751273657   T   T   T
  0.0000549107216548  0.0002886190730577  0.3386142007703880   T   T   T
  0.2499483989518701 -0.0006653903396782  0.3382901378353084   T   T   T
  0.2495171607968864  0.7496497253826253  0.3417675405042716   T   T   T
  0.5018032730818854  0.0009372316996960  0.3384455320924626   T   T   T
 -0.0006751223861926  0.2503524992662551  0.3389754178026242   T   T   T
  0.5070124810648716  0.2512100447340052  0.3415357318352401   T   T   T
  0.1262782258663676  0.8746912235157590  0.2671498380600631   T   T   T
  0.7538975437024060  0.2497151969862212  0.3388935319256691   T   T   T
  0.0005567814287022  0.5005795145841729  0.3387849426276427   T   T   T
  0.2502086776777493  0.4991776259410152  0.3385693117523778   T   T   T
  0.5020020104224955  0.5006522562657361  0.3383489047238976   T   T   T
  0.7518218141830442  0.4999700283210977  0.3387470210417406   T   T   T
  0.7516258646517656 -0.0004534969378295  0.3386605464932711   T   T   T
  0.5000000000000000  0.7500000000000000  0.0539927820073487   F   F   F
Cartesian
  0.0000000000000000  0.0000000000000000  0.0000000000000000
  0.0000000000000000  0.0000000000000000  0.0000000000000000
  0.0000000000000000  0.0000000000000000  0.0000000000000000
  0.0000000000000000  0.0000000000000000  0.0000000000000000
  0.0000000000000000  0.0000000000000000  0.0000000000000000
  0.0000000000000000  0.0000000000000000  0.0000000000000000
  0.0000000000000000  0.0000000000000000  0.0000000000000000
  0.0000000000000000  0.0000000000000000  0.0000000000000000
  0.0000000000000000  0.0000000000000000  0.0000000000000000
  0.0000000000000000  0.0000000000000000  0.0000000000000000
  0.0000000000000000  0.0000000000000000  0.0000000000000000
  0.0000000000000000  0.0000000000000000  0.0000000000000000
  0.0000000000000000  0.0000000000000000  0.0000000000000000
  0.0000000000000000  0.0000000000000000  0.0000000000000000
  0.0000000000000000  0.0000000000000000  0.0000000000000000
  0.0000000000000000  0.0000000000000000  0.0000000000000000
  0.0000000000000000  0.0000000000000000  0.0000000000000000
  0.0000000000000000  0.0000000000000000  0.0000000000000000
  0.0000000000000000  0.0000000000000000  0.0000000000000000
  0.0000000000000000  0.0000000000000000  0.0000000000000000
  0.0000000000000000  0.0000000000000000  0.0000000000000000
  0.0000000000000000  0.0000000000000000  0.0000000000000000
  0.0000000000000000  0.0000000000000000  0.0000000000000000
  0.0000000000000000  0.0000000000000000  0.0000000000000000
  0.0000000000000000  0.0000000000000000  0.0000000000000000
  0.0000000000000000  0.0000000000000000  0.0000000000000000
  0.0000000000000000  0.0000000000000000  0.0000000000000000
  0.0000000000000000  0.0000000000000000  0.0000000000000000
  0.0000000000000000  0.0000000000000000  0.0000000000000000
  0.0000000000000000  0.0000000000000000  0.0000000000000000
  0.0000000000000000  0.0000000000000000  0.0000000000000000
  0.0000000000000000  0.0000000000000000  0.0000000000000000
  0.0000000000000000  0.0000000000000000  0.0000000000000000
  0.0000000000000000  0.0000000000000000  0.0000000000000000
  0.0000000000000000  0.0000000000000000  0.0000000000000000
  0.0000000000000000  0.0000000000000000  0.0000000000000000
  0.0000000000000000  0.0000000000000000  0.0000000000000000
  0.0000000000000000  0.0000000000000000  0.0000000000000000
  0.0000000000000000  0.0000000000000000  0.0000000000000000
  0.0000000000000000  0.0000000000000000  0.0000000000000000
  0.0000000000000000  0.0000000000000000  0.0000000000000000
  0.0000000000000000  0.0000000000000000  0.0000000000000000
  0.0000000000000000  0.0000000000000000  0.0000000000000000
  0.0000000000000000  0.0000000000000000  0.0000000000000000
  0.0000000000000000  0.0000000000000000  0.0000000000000000
  0.0000000000000000  0.0000000000000000  0.0000000000000000
  0.0000000000000000  0.0000000000000000  0.0000000000000000
  0.0000000000000000  0.0000000000000000  0.0000000000000000
  0.0000000000000000  0.0000000000000000  0.0000000000000000
  0.0000000000000000  0.0000000000000000  0.0000000000000000
  0.0000000000000000  0.0000000000000000  0.0000000000000000
  0.0000000000000000  0.0000000000000000  0.0000000000000000
  0.0000000000000000  0.0000000000000000  0.0000000000000000
  0.0000000000000000  0.0000000000000000  0.0000000000000000
  0.0000000000000000  0.0000000000000000  0.0000000000000000
  0.0000000000000000  0.0000000000000000  0.0000000000000000
  0.0000000000000000  0.0000000000000000  0.0000000000000000
  0.0000000000000000  0.0000000000000000  0.0000000000000000
  0.0000000000000000  0.0000000000000000  0.0000000000000000
  0.0000000000000000  0.0000000000000000  0.0000000000000000
  0.0000000000000000  0.0000000000000000  0.0000000000000000
  0.0000000000000000  0.0000000000000000  0.0000000000000000
  0.0000000000000000  0.0000000000000000  0.0000000000000000
  0.0000000000000000  0.0000000000000000  0.0000000000000000
  0.0000000000000000  0.0000000000000000  0.0000000000000000
  0.0000000000000000  0.0000000000000000  0.0000000000000000
  0.0000000000000000  0.0000000000000000  0.0000000000000000
  0.0000000000000000  0.0000000000000000  0.0000000000000000
  0.0000000000000000  0.0000000000000000  0.0000000000000000
  0.0000000000000000  0.0000000000000000  0.0000000000000000
  0.0000000000000000  0.0000000000000000  0.0000000000000000
  0.0000000000000000  0.0000000000000000  0.0000000000000000
  0.0000000000000000  0.0000000000000000  0.0000000000000000
  0.0000000000000000  0.0000000000000000  0.0000000000000000
  0.0000000000000000  0.0000000000000000  0.0000000000000000
  0.0000000000000000  0.0000000000000000  0.0000000000000000
  0.0000000000000000  0.0000000000000000  0.0000000000000000
  0.0000000000000000  0.0000000000000000  0.0000000000000000
  0.0000000000000000  0.0000000000000000  0.0000000000000000
  0.0000000000000000  0.0000000000000000  0.0000000000000000
  0.0000000000000000  0.0000000000000000  0.0000000000000000
  0.0000000000000000  0.0000000000000000  0.0000000000000000
  0.0000000000000000  0.0000000000000000  0.0000000000000000
  0.0000000000000000  0.0000000000000000  0.0000000000000000
  0.0000000000000000  0.0000000000000000  0.0000000000000000
  0.0000000000000000  0.0000000000000000  0.0000000000000000
  0.0000000000000000  0.0000000000000000  0.0000000000000000
