O  Pd
 1.0000000000000000
     9.5317092920176041    0.0000000000000000    0.0000000000000000
     0.0000000000000000    9.0847323602645993    0.0000000000000000
     0.0000000000000000    0.0000000000000000   33.6160065835929487
 O   Pd 
  96  48
Selective dynamics
Cartesian
  3.1772364306725351  1.3989560792671372 15.1270985403969007   T   T   T
  7.9430910766813385  3.6701391693332872  3.2444540215980258   F   F   F
  3.1772364306725351  5.9413222593994357 15.1270985403969007   T   T   T
  3.1772364306725351  7.6857762809974615 18.6160065835929487   T   T   T
  4.7658546460088012  5.4145931909313108 16.8715525619949247   T   T   T
  4.7658546460088029  8.2125053494655873 16.8715525619949247   T   T   T
  3.1772364306725351  5.9413222593994357 10.5847323602645993   T   T   T
  3.1772364306725351  7.6857762809974615 14.0736404034606526   T   T   T
  4.7658546460088012  5.4145931909313108 12.3291863818626268   T   T   T
  4.7658546460088029  8.2125053494655873 12.3291863818626268   T   T   T
  3.1772364306725351  5.9413222593994357  6.0423661801323005   F   F   F
  3.1772364306725351  7.6857762809974615  9.5312742233283494   T   T   T
  4.7658546460088012  5.4145931909313108  7.7868202017303254   F   F   F
  4.7658546460088029  8.2125053494655873  7.7868202017303263   F   F   F
  3.1772364306725351  5.9413222593994357  1.5000000000000002   F   F   F
  3.1772364306725351  7.6857762809974615  4.9889080431960497   F   F   F
  4.7658546460088012  5.4145931909313108  3.2444540215980249   F   F   F
  4.7658546460088029  8.2125053494655873  3.2444540215980258   F   F   F
  6.3544728613450703  7.6857762809974615 18.6160065835929487   T   T   T
  3.1772364306725351  3.1434101008651623 18.6160065835929487   T   T   T
  4.7658546460088012  0.8722270107990122 16.8715525619949247   T   T   T
  4.7658546460088029  3.6701391693332872 16.8715525619949247   T   T   T
  3.1772364306725351  1.3989560792671372 10.5847323602645993   T   T   T
  3.1772364306725351  3.1434101008651623 14.0736404034606526   T   T   T
  4.7658546460088012  0.8722270107990122 12.3291863818626268   T   T   T
  4.7658546460088029  3.6701391693332872 12.3291863818626268   T   T   T
  7.9430910766813367  0.8722270107990122  3.2444540215980249   F   F   F
  3.1772364306725351  1.3989560792671372  6.0423661801323005   F   F   F
  6.3544728613450703  3.1434101008651623  4.9889080431960497   F   F   F
  7.9430910766813385  3.6701391693332872  7.7868202017303263   F   F   F
  7.9430910766813367  5.4145931909313108 16.8715525619949247   T   T   T
  7.9430910766813385  8.2125053494655873 16.8715525619949247   T   T   T
  6.3544728613450694  5.9413222593994357 10.5847323602645993   T   T   T
  6.3544728613450703  7.6857762809974615 14.0736404034606526   T   T   T
  7.9430910766813367  5.4145931909313108 12.3291863818626268   T   T   T
  7.9430910766813385  8.2125053494655873 12.3291863818626268   T   T   T
  6.3544728613450694  5.9413222593994357  6.0423661801323005   F   F   F
  6.3544728613450703  7.6857762809974615  9.5312742233283494   T   T   T
  7.9430910766813367  5.4145931909313108  7.7868202017303254   F   F   F
  7.9430910766813385  8.2125053494655873  7.7868202017303263   F   F   F
  6.3544728613450694  5.9413222593994357  1.5000000000000002   F   F   F
  6.3544728613450703  7.6857762809974615  4.9889080431960497   F   F   F
  7.9430910766813367  5.4145931909313108  3.2444540215980249   F   F   F
  7.9430910766813385  8.2125053494655873  3.2444540215980258   F   F   F
  6.3544728613450694  1.3989560792671372 15.1270985403969007   T   T   T
  6.3544728613450703  3.1434101008651623 18.6160065835929487   T   T   T
  7.9430910766813367  0.8722270107990122 16.8715525619949247   T   T   T
  7.9430910766813385  3.6701391693332872 16.8715525619949247   T   T   T
  6.3544728613450694  1.3989560792671372 10.5847323602645993   T   T   T
  6.3544728613450703  3.1434101008651623 14.0736404034606526   T   T   T
  7.9430910766813367  0.8722270107990122 12.3291863818626268   T   T   T
  7.9430910766813385  3.6701391693332872 12.3291863818626268   T   T   T
  6.3544728613450694  1.3989560792671372  6.0423661801323005   F   F   F
  6.3544728613450703  3.1434101008651623  9.5312742233283494   T   T   T
  7.9430910766813367  0.8722270107990122  7.7868202017303254   F   F   F
  6.3544728613450694  1.3989560792671372  1.5000000000000002   F   F   F
  3.1772364306725351  3.1434101008651623  9.5312742233283494   T   T   T
  6.3544728613450694  5.9413222593994357 15.1270985403969007   T   T   T
  4.7658546460088029  3.6701391693332872  7.7868202017303263   F   F   F
  0.0000000000000005  7.6857762809974615  9.5312742233283494   T   T   T
  1.5886182153362673  5.4145931909313108  7.7868202017303254   F   F   F
  1.5886182153362678  8.2125053494655873  7.7868202017303263   F   F   F
  0.0000000000000002  5.9413222593994357  1.5000000000000002   F   F   F
  4.7658546460088012  0.8722270107990122  7.7868202017303254   F   F   F
  1.5886182153362673  5.4145931909313108  3.2444540215980249   F   F   F
  1.5886182153362678  8.2125053494655873  3.2444540215980258   F   F   F
  0.0000000000000002  1.3989560792671372 15.1270985403969007   T   T   T
  0.0000000000000005  3.1434101008651623 18.6160065835929487   T   T   T
  1.5886182153362673  0.8722270107990122 16.8715525619949247   T   T   T
  1.5886182153362678  3.6701391693332872 16.8715525619949247   T   T   T
  0.0000000000000002  1.3989560792671372 10.5847323602645993   T   T   T
  0.0000000000000005  3.1434101008651623 14.0736404034606526   T   T   T
  1.5886182153362673  0.8722270107990122 12.3291863818626268   T   T   T
  1.5886182153362678  3.6701391693332872 12.3291863818626268   T   T   T
  0.0000000000000002  1.3989560792671372  6.0423661801323005   F   F   F
  0.0000000000000005  3.1434101008651623  9.5312742233283494   T   T   T
  1.5886182153362673  0.8722270107990122  7.7868202017303254   F   F   F
  1.5886182153362678  3.6701391693332872  7.7868202017303263   F   F   F
  0.0000000000000002  1.3989560792671372  1.5000000000000002   F   F   F
  0.0000000000000005  3.1434101008651623  4.9889080431960497   F   F   F
  1.5886182153362673  0.8722270107990122  3.2444540215980249   F   F   F
  1.5886182153362678  3.6701391693332872  3.2444540215980258   F   F   F
  0.0000000000000002  5.9413222593994357  6.0423661801323005   F   F   F
  1.5886182153362678  8.2125053494655873 12.3291863818626268   T   T   T
  0.0000000000000005  7.6857762809974615  4.9889080431960497   F   F   F
  3.1772364306725351  1.3989560792671372  1.5000000000000002   F   F   F
  1.5886182153362678  8.2125053494655873 16.8715525619949247   T   T   T
  4.7658546460088029  3.6701391693332872  3.2444540215980258   F   F   F
  1.5886182153362673  5.4145931909313108 16.8715525619949247   T   T   T
  0.0000000000000005  7.6857762809974615 18.6160065835929487   T   T   T
  3.1772364306725351  3.1434101008651623  4.9889080431960497   F   F   F
  0.0000000000000002  5.9413222593994357 10.5847323602645993   T   T   T
  4.7658546460088012  0.8722270107990122  3.2444540215980249   F   F   F
  0.0000000000000002  5.9413222593994357 15.1270985403969007   T   T   T
  0.0000000000000005  7.6857762809974615 14.0736404034606526   T   T   T
  1.5886182153362673  5.4145931909313108 12.3291863818626268   T   T   T
  0.0000000000000000  0.0000000000000000 12.3291863818626268   T   T   T
  4.7658546460088012  2.2711830900661494 16.8715525619949247   T   T   T
  7.9430910766813367  6.8135492701984486  7.7868202017303254   F   F   F
  6.3544728613450694  4.5423661801322988  7.7868202017303254   F   F   F
  6.3544728613450694  4.5423661801322988  3.2444540215980249   F   F   F
  7.9430910766813367  6.8135492701984486  3.2444540215980249   F   F   F
  3.1772364306725347  0.0000000000000000 16.8715525619949247   T   T   T
  1.5886182153362676  2.2711830900661494 12.3291863818626268   T   T   T
  3.1772364306725347  4.5423661801322988 12.3291863818626268   T   T   T
  7.9430910766813367  6.8135492701984486 12.3291863818626268   T   T   T
  6.3544728613450694  4.5423661801322988 12.3291863818626268   T   T   T
  1.5886182153362676  2.2711830900661494  7.7868202017303254   F   F   F
  4.7658546460088012  2.2711830900661494  7.7868202017303254   F   F   F
  3.1772364306725347  0.0000000000000000 12.3291863818626268   T   T   T
  4.7658546460088012  2.2711830900661494 12.3291863818626268   T   T   T
  7.9430910766813367  6.8135492701984486 16.8715525619949247   T   T   T
  6.3544728613450694  4.5423661801322988 16.8715525619949247   T   T   T
  3.1772364306725347  0.0000000000000000  7.7868202017303254   F   F   F
  0.0000000000000000  0.0000000000000000  3.2444540215980249   F   F   F
  0.0000000000000000  0.0000000000000000  7.7868202017303254   F   F   F
  3.1772364306725347  0.0000000000000000  3.2444540215980249   F   F   F
  7.9430910766813367  2.2711830900661494 16.8715525619949247   T   T   T
  1.5886182153362676  2.2711830900661494 16.8715525619949247   T   T   T
  0.0000000000000000  4.5423661801322988 12.3291863818626268   T   T   T
  1.5886182153362676  6.8135492701984486 12.3291863818626268   T   T   T
  4.7658546460088012  6.8135492701984486 16.8715525619949247   T   T   T
  3.1772364306725347  4.5423661801322988 16.8715525619949247   T   T   T
  1.5886182153362676  6.8135492701984486 16.8715525619949247   T   T   T
  3.1772364306725347  4.5423661801322988  7.7868202017303254   F   F   F
  0.0000000000000000  4.5423661801322988  7.7868202017303254   F   F   F
  7.9430910766813367  2.2711830900661494  3.2444540215980249   F   F   F
  6.3544728613450694  0.0000000000000000  3.2444540215980249   F   F   F
  1.5886182153362676  6.8135492701984486  7.7868202017303254   F   F   F
  4.7658546460088012  6.8135492701984486  7.7868202017303254   F   F   F
  0.0000000000000000  4.5423661801322988 16.8715525619949247   T   T   T
  7.9430910766813367  2.2711830900661494  7.7868202017303254   F   F   F
  6.3544728613450694  0.0000000000000000  7.7868202017303254   F   F   F
  0.0000000000000000  4.5423661801322988  3.2444540215980249   F   F   F
  1.5886182153362676  6.8135492701984486  3.2444540215980249   F   F   F
  7.9430910766813367  2.2711830900661494 12.3291863818626268   T   T   T
  6.3544728613450694  0.0000000000000000 12.3291863818626268   T   T   T
  3.1772364306725347  4.5423661801322988  3.2444540215980249   F   F   F
  4.7658546460088012  6.8135492701984486  3.2444540215980249   F   F   F
  0.0000000000000000  0.0000000000000000 16.8715525619949247   T   T   T
  4.7658546460088012  6.8135492701984486 12.3291863818626268   T   T   T
  6.3544728613450694  0.0000000000000000 16.8715525619949247   T   T   T
  4.7658546460088012  2.2711830900661494  3.2444540215980249   F   F   F
  1.5886182153362676  2.2711830900661494  3.2444540215980249   F   F   F
