O  Pd                                   
    1.000000000000000     
     9.5317092920176041    0.0000000000000000    0.0000000000000006
     0.0000000000000021   12.7949886507706250    1.1631807864336943
     0.0000000000000000    0.0000000000000000   32.4389247649809747
   O    Pd
    96    48
Selective dynamics
Direct
  0.0000000000000000  0.5383701300706747  0.0587695686769862   F   F   F
  0.6666666666666643  0.2656428573434013  0.1581928113714781   F   F   F
  0.6666666956521654  0.7656389820337456  0.1580785835251499   T   T   T
  0.0000000000000000  0.2656428573434013  0.1581928113714781   F   F   F
  0.0000000169633509  0.7656389818529580  0.1580785844267709   T   T   T
  0.1666666512730318  0.1364574555292479  0.3015947240142814   T   T   T
  0.1666666562692024  0.6366881809559055  0.3013695368798543   T   T   T
  0.3333333492944175  0.7656389810585068  0.1580785888698915   T   T   T
  0.5000000511103595  0.1364574587575810  0.3015947245085802   T   T   T
  0.8333333590350362  0.1364574388561595  0.3015947242202430   T   T   T
  0.8333333597466317  0.6366881674922423  0.3013695370411054   T   T   T
  0.1666666542719123  0.3293267585390873  0.3015999799468136   T   T   T
  0.1666666530598737  0.8291847454281575  0.3013727413499381   T   T   T
  0.5000000490751905  0.3293267552517340  0.3015999808422889   T   T   T
  0.5000000478222274  0.8291847436347668  0.3013727418803347   T   T   T
  0.5000000469309750  0.6366881838554983  0.3013695378445144   T   T   T
  0.8333333572795771  0.3293267740521300  0.3015999801956436   T   T   T
  0.3333333333333357  0.2656428573434013  0.1581928113714781   F   F   F
  0.6666666666666643  0.0209137292712640  0.1351347355000954   F   F   F
  0.5000000809030939  0.4104889901101492  0.1993300193789841   T   T   T
  0.5000000767989633  0.9104357883491309  0.1994253163720480   T   T   T
  0.8333333553704195  0.4104889781209745  0.1993300198628380   T   T   T
  0.8333333531367942  0.9104357792884721  0.1994253171970977   T   T   T
  0.1666666698860035  0.1020705973335288  0.1993815979546154   T   T   T
  0.1666666774245617  0.6020758000411148  0.1995015884948013   T   T   T
  0.6666666666666643  0.5209137292712640  0.1351347355000954   F   F   F
  0.5000000828097148  0.1020706111905347  0.1993816011327247   T   T   T
  0.8333333590304784  0.1020706256795591  0.1993816025111431   T   T   T
  0.8333333501477568  0.6020758162968565  0.1995015914080402   T   T   T
  0.0000000000000000  0.0209137292712640  0.1351347355000954   F   F   F
  0.0000000000000000  0.5209137292712640  0.1351347355000954   F   F   F
  0.3333333333333357  0.0209137292712640  0.1351347355000954   F   F   F
  0.3333333333333357  0.5209137292712640  0.1351347355000954   F   F   F
  0.5000000746466338  0.6020758081214715  0.1995015915403195   T   T   T
  0.1666666718210218  0.9104357961506742  0.1994253135572446   T   T   T
  0.8333333614613740  0.8291847608002086  0.3013727414076975   T   T   T
  0.3333333675402294  0.7478931962985096  0.2344259383155732   T   T   T
  0.5000000075064185  0.0574649996903929  0.4038980760066883   T   T   T
  0.5000000088272825  0.5574963636191940  0.4039201211491265   T   T   T
  0.8333333418600297  0.0574649996906719  0.4038980766231879   T   T   T
  0.8333333418336258  0.5574963663349700  0.4039201222228999   T   T   T
  0.3333333495008335  0.4755600948023785  0.3334328766785831   T   T   T
  0.3333333480877647  0.9756461898834524  0.3334295272116167   T   T   T
  0.1666666809370728  0.5574963640572189  0.4039201226665112   T   T   T
  0.6666667095841166  0.4755600931837610  0.3334328796733881   T   T   T
  0.0000000004455082  0.4755600933174750  0.3334328788141458   T   T   T
  0.9999999972184844  0.9756461892942857  0.3334295310158089   T   T   T
  0.3333333433081812  0.2194588512527340  0.3590806851454582   T   T   T
  0.3333333459024546  0.7194965535064758  0.3587257791685453   T   T   T
  0.6666666890898101  0.2194588511535076  0.3590806825143133   T   T   T
  0.6666666880324353  0.7194965539424031  0.3587257770782418   T   T   T
  0.6666667145948771  0.9756461903785447  0.3334295306448744   T   T   T
  0.3333333537840799  0.2476182828913573  0.2349315776496383   T   T   T
  0.1666666823280218  0.0574650026497215  0.4038980761060872   T   T   T
  0.8333333415031333  0.3612613400733711  0.4039079452984419   T   T   T
  0.6666667145551211  0.2476182836839192  0.2349315765388339   T   T   T
  0.6666667106650906  0.7478931958057876  0.2344259329292089   T   T   T
  0.9999999762658067  0.2476182835436618  0.2349315765610540   T   T   T
  0.9999999951490417  0.7478931987933232  0.2344259356661360   T   T   T
  0.3333333712768696  0.4930249774680561  0.2569459178538526   T   T   T
  0.3333333646988003  0.9930760012877713  0.2569449881983769   T   T   T
  0.8333333390935320  0.8612144093949814  0.4039229340893411   T   T   T
  0.6666667203905126  0.4930249795469336  0.2569459062109556   T   T   T
  0.9999999913793916  0.4930249802121606  0.2569459054077065   T   T   T
  0.9999999877642151  0.9930760046377083  0.2569449735314781   T   T   T
  0.1666666791998067  0.3612613367736641  0.4039079449555975   T   T   T
  0.1666666801017615  0.8612144128009307  0.4039229343660328   T   T   T
  0.5000000050585686  0.3612613390729484  0.4039079445440324   T   T   T
  0.5000000068518922  0.8612144108769973  0.4039229328542511   T   T   T
  0.6666667312216374  0.9930760046924332  0.2569449749231409   T   T   T
  0.1666666770124865  0.4104890084264489  0.1993300160784369   T   T   T
  0.0000000062636145  0.7194965527773981  0.3587257754560509   T   T   T
  0.0000000000000000  0.0383701300706747  0.0587695686769862   F   F   F
  0.1666666666666643  0.1836317252741893  0.0969521520885408   F   F   F
  0.1666666666666643  0.6836317252741893  0.0969521520885408   F   F   F
  0.5000000000000000  0.1836317252741893  0.0969521520885408   F   F   F
  0.5000000000000000  0.6836317252741893  0.0969521520885408   F   F   F
  0.8333333333333357  0.1836317252741893  0.0969521520885408   F   F   F
  0.8333333333333357  0.6836317252741893  0.0969521520885408   F   F   F
  0.0000000053572408  0.2194588513596352  0.3590806811435777   T   T   T
  0.1666666666666643  0.8756521340677423  0.0969521520885408   F   F   F
  0.5000000000000000  0.3756521340677423  0.0969521520885408   F   F   F
  0.5000000000000000  0.8756521340677423  0.0969521520885408   F   F   F
  0.8333333333333357  0.3756521340677423  0.0969521520885408   F   F   F
  0.1666666666666643  0.3756521340677423  0.0969521520885408   F   F   F
  0.3333333333333357  0.2936410019985374  0.0357114928056035   F   F   F
  0.3333333333333357  0.7936410019985374  0.0357114928056035   F   F   F
  0.6666666666666643  0.2936410019985374  0.0357114928056035   F   F   F
  0.6666666666666643  0.7936410019985374  0.0357114928056035   F   F   F
  0.0000000000000000  0.2936410019985374  0.0357114928056035   F   F   F
  0.0000000000000000  0.7936410019985374  0.0357114928056035   F   F   F
  0.3333333333333357  0.0383701300706747  0.0587695686769862   F   F   F
  0.3333333333333357  0.5383701300706747  0.0587695686769862   F   F   F
  0.6666666666666643  0.0383701300706747  0.0587695686769862   F   F   F
  0.6666666666666643  0.5383701300706747  0.0587695686769862   F   F   F
  0.8333333333333357  0.8756521340677423  0.0969521520885408   F   F   F
  0.1666666223419024  0.7570702161815096  0.1960375978509382   T   T   T
  0.4999999189599234  0.2570068179437381  0.1964528848351141   T   T   T
  0.4999999276646157  0.7570702198086785  0.1960375929629039   T   T   T
  0.8333333143978504  0.2570068199503883  0.1964528802614474   T   T   T
  0.6666665958759315  0.5071504835246634  0.1956961191393012   T   T   T
  0.3333332351828181  0.0070918828434880  0.1956962230685575   T   T   T
  0.3333332199076440  0.5071504902345687  0.1956961232916958   T   T   T
  0.6666665769713360  0.0070918911507457  0.1956962178955614   T   T   T
  0.8333332942693338  0.7570702189786601  0.1960375888993525   T   T   T
  0.1666666790662907  0.2570068192906763  0.1964528860827436   T   T   T
  0.1666666666666643  0.5296419296709658  0.0969521520885408   F   F   F
  0.6666666666666643  0.2796419296709658  0.0969521520885408   F   F   F
  0.3333333333333357  0.7796419296709658  0.0969521520885408   F   F   F
  0.3333333333333357  0.2796419296709658  0.0969521520885408   F   F   F
  0.0000000000000000  0.7796419296709658  0.0969521520885408   F   F   F
  0.0000000000000000  0.2796419296709658  0.0969521520885408   F   F   F
  0.8333333333333357  0.5296419296709658  0.0969521520885408   F   F   F
  0.8333333333333357  0.0296419296709658  0.0969521520885408   F   F   F
  0.5000000000000000  0.5296419296709658  0.0969521520885408   F   F   F
  0.5000000000000000  0.0296419296709658  0.0969521520885408   F   F   F
  0.0000000115880585  0.0070918866294675  0.1956962180692813   T   T   T
  0.6666666666666643  0.7796419296709658  0.0969521520885408   F   F   F
  0.0000000094486292  0.5071504880533063  0.1956961192717254   T   T   T
  0.0000000300336005  0.7343751595654030  0.2951966704106677   T   T   T
  0.1666667224618870  0.9844068797702513  0.2944793633942230   T   T   T
  0.6666666750922970  0.9613086000046211  0.3953076715819645   T   T   T
  0.6666666753038346  0.4613303994818721  0.3953095599388037   T   T   T
  0.3333333409591774  0.9613086024469142  0.3953076682117701   T   T   T
  0.3333333397179720  0.4613303987555398  0.3953095563938336   T   T   T
  0.0000000102330457  0.9613086007079057  0.3953076744644221   T   T   T
  0.0000000109277374  0.4613303990524850  0.3953095619796265   T   T   T
  0.8333333426421773  0.7117729905045999  0.3934463621359389   T   T   T
  0.8333333430659636  0.2117189246752509  0.3936823643944229   T   T   T
  0.5000000063300862  0.7117729892293753  0.3934463631367596   T   T   T
  0.5000000001093674  0.2117189232786146  0.3936823649486544   T   T   T
  0.1666666797169777  0.7117729919283448  0.3934463624039065   T   T   T
  0.1666666843737926  0.2117189248585597  0.3936823627663181   T   T   T
  0.0000000487771052  0.2343117578906583  0.2956053514004374   T   T   T
  0.6666665911708662  0.7343751604768270  0.2951966693665856   T   T   T
  0.6666665749798620  0.2343117583232380  0.2956053523153868   T   T   T
  0.3333333151453480  0.7343751605691622  0.2951966623821202   T   T   T
  0.3333333185846379  0.2343117608988636  0.2956053431596760   T   T   T
  0.8333333062729155  0.9844068786024366  0.2944793609760660   T   T   T
  0.8333333191997713  0.4846595612366889  0.2944796118697828   T   T   T
  0.4999998742254771  0.9844068804423425  0.2944793643530891   T   T   T
  0.4999998791256670  0.4846595583185875  0.2944796155923452   T   T   T
  0.1666667056534475  0.4846595590807312  0.2944796136094161   T   T   T
  0.1666666666666643  0.0296419296709658  0.0969521520885408   F   F   F
 
  0.00000000E+00  0.00000000E+00  0.00000000E+00
  0.00000000E+00  0.00000000E+00  0.00000000E+00
  0.00000000E+00  0.00000000E+00  0.00000000E+00
  0.00000000E+00  0.00000000E+00  0.00000000E+00
  0.00000000E+00  0.00000000E+00  0.00000000E+00
  0.00000000E+00  0.00000000E+00  0.00000000E+00
  0.00000000E+00  0.00000000E+00  0.00000000E+00
  0.00000000E+00  0.00000000E+00  0.00000000E+00
  0.00000000E+00  0.00000000E+00  0.00000000E+00
  0.00000000E+00  0.00000000E+00  0.00000000E+00
  0.00000000E+00  0.00000000E+00  0.00000000E+00
  0.00000000E+00  0.00000000E+00  0.00000000E+00
  0.00000000E+00  0.00000000E+00  0.00000000E+00
  0.00000000E+00  0.00000000E+00  0.00000000E+00
  0.00000000E+00  0.00000000E+00  0.00000000E+00
  0.00000000E+00  0.00000000E+00  0.00000000E+00
  0.00000000E+00  0.00000000E+00  0.00000000E+00
  0.00000000E+00  0.00000000E+00  0.00000000E+00
  0.00000000E+00  0.00000000E+00  0.00000000E+00
  0.00000000E+00  0.00000000E+00  0.00000000E+00
  0.00000000E+00  0.00000000E+00  0.00000000E+00
  0.00000000E+00  0.00000000E+00  0.00000000E+00
  0.00000000E+00  0.00000000E+00  0.00000000E+00
  0.00000000E+00  0.00000000E+00  0.00000000E+00
  0.00000000E+00  0.00000000E+00  0.00000000E+00
  0.00000000E+00  0.00000000E+00  0.00000000E+00
  0.00000000E+00  0.00000000E+00  0.00000000E+00
  0.00000000E+00  0.00000000E+00  0.00000000E+00
  0.00000000E+00  0.00000000E+00  0.00000000E+00
  0.00000000E+00  0.00000000E+00  0.00000000E+00
  0.00000000E+00  0.00000000E+00  0.00000000E+00
  0.00000000E+00  0.00000000E+00  0.00000000E+00
  0.00000000E+00  0.00000000E+00  0.00000000E+00
  0.00000000E+00  0.00000000E+00  0.00000000E+00
  0.00000000E+00  0.00000000E+00  0.00000000E+00
  0.00000000E+00  0.00000000E+00  0.00000000E+00
  0.00000000E+00  0.00000000E+00  0.00000000E+00
  0.00000000E+00  0.00000000E+00  0.00000000E+00
  0.00000000E+00  0.00000000E+00  0.00000000E+00
  0.00000000E+00  0.00000000E+00  0.00000000E+00
  0.00000000E+00  0.00000000E+00  0.00000000E+00
  0.00000000E+00  0.00000000E+00  0.00000000E+00
  0.00000000E+00  0.00000000E+00  0.00000000E+00
  0.00000000E+00  0.00000000E+00  0.00000000E+00
  0.00000000E+00  0.00000000E+00  0.00000000E+00
  0.00000000E+00  0.00000000E+00  0.00000000E+00
  0.00000000E+00  0.00000000E+00  0.00000000E+00
  0.00000000E+00  0.00000000E+00  0.00000000E+00
  0.00000000E+00  0.00000000E+00  0.00000000E+00
  0.00000000E+00  0.00000000E+00  0.00000000E+00
  0.00000000E+00  0.00000000E+00  0.00000000E+00
  0.00000000E+00  0.00000000E+00  0.00000000E+00
  0.00000000E+00  0.00000000E+00  0.00000000E+00
  0.00000000E+00  0.00000000E+00  0.00000000E+00
  0.00000000E+00  0.00000000E+00  0.00000000E+00
  0.00000000E+00  0.00000000E+00  0.00000000E+00
  0.00000000E+00  0.00000000E+00  0.00000000E+00
  0.00000000E+00  0.00000000E+00  0.00000000E+00
  0.00000000E+00  0.00000000E+00  0.00000000E+00
  0.00000000E+00  0.00000000E+00  0.00000000E+00
  0.00000000E+00  0.00000000E+00  0.00000000E+00
  0.00000000E+00  0.00000000E+00  0.00000000E+00
  0.00000000E+00  0.00000000E+00  0.00000000E+00
  0.00000000E+00  0.00000000E+00  0.00000000E+00
  0.00000000E+00  0.00000000E+00  0.00000000E+00
  0.00000000E+00  0.00000000E+00  0.00000000E+00
  0.00000000E+00  0.00000000E+00  0.00000000E+00
  0.00000000E+00  0.00000000E+00  0.00000000E+00
  0.00000000E+00  0.00000000E+00  0.00000000E+00
  0.00000000E+00  0.00000000E+00  0.00000000E+00
  0.00000000E+00  0.00000000E+00  0.00000000E+00
  0.00000000E+00  0.00000000E+00  0.00000000E+00
  0.00000000E+00  0.00000000E+00  0.00000000E+00
  0.00000000E+00  0.00000000E+00  0.00000000E+00
  0.00000000E+00  0.00000000E+00  0.00000000E+00
  0.00000000E+00  0.00000000E+00  0.00000000E+00
  0.00000000E+00  0.00000000E+00  0.00000000E+00
  0.00000000E+00  0.00000000E+00  0.00000000E+00
  0.00000000E+00  0.00000000E+00  0.00000000E+00
  0.00000000E+00  0.00000000E+00  0.00000000E+00
  0.00000000E+00  0.00000000E+00  0.00000000E+00
  0.00000000E+00  0.00000000E+00  0.00000000E+00
  0.00000000E+00  0.00000000E+00  0.00000000E+00
  0.00000000E+00  0.00000000E+00  0.00000000E+00
  0.00000000E+00  0.00000000E+00  0.00000000E+00
  0.00000000E+00  0.00000000E+00  0.00000000E+00
  0.00000000E+00  0.00000000E+00  0.00000000E+00
  0.00000000E+00  0.00000000E+00  0.00000000E+00
  0.00000000E+00  0.00000000E+00  0.00000000E+00
  0.00000000E+00  0.00000000E+00  0.00000000E+00
  0.00000000E+00  0.00000000E+00  0.00000000E+00
  0.00000000E+00  0.00000000E+00  0.00000000E+00
  0.00000000E+00  0.00000000E+00  0.00000000E+00
  0.00000000E+00  0.00000000E+00  0.00000000E+00
  0.00000000E+00  0.00000000E+00  0.00000000E+00
  0.00000000E+00  0.00000000E+00  0.00000000E+00
  0.00000000E+00  0.00000000E+00  0.00000000E+00
  0.00000000E+00  0.00000000E+00  0.00000000E+00
  0.00000000E+00  0.00000000E+00  0.00000000E+00
  0.00000000E+00  0.00000000E+00  0.00000000E+00
  0.00000000E+00  0.00000000E+00  0.00000000E+00
  0.00000000E+00  0.00000000E+00  0.00000000E+00
  0.00000000E+00  0.00000000E+00  0.00000000E+00
  0.00000000E+00  0.00000000E+00  0.00000000E+00
  0.00000000E+00  0.00000000E+00  0.00000000E+00
  0.00000000E+00  0.00000000E+00  0.00000000E+00
  0.00000000E+00  0.00000000E+00  0.00000000E+00
  0.00000000E+00  0.00000000E+00  0.00000000E+00
  0.00000000E+00  0.00000000E+00  0.00000000E+00
  0.00000000E+00  0.00000000E+00  0.00000000E+00
  0.00000000E+00  0.00000000E+00  0.00000000E+00
  0.00000000E+00  0.00000000E+00  0.00000000E+00
  0.00000000E+00  0.00000000E+00  0.00000000E+00
  0.00000000E+00  0.00000000E+00  0.00000000E+00
  0.00000000E+00  0.00000000E+00  0.00000000E+00
  0.00000000E+00  0.00000000E+00  0.00000000E+00
  0.00000000E+00  0.00000000E+00  0.00000000E+00
  0.00000000E+00  0.00000000E+00  0.00000000E+00
  0.00000000E+00  0.00000000E+00  0.00000000E+00
  0.00000000E+00  0.00000000E+00  0.00000000E+00
  0.00000000E+00  0.00000000E+00  0.00000000E+00
  0.00000000E+00  0.00000000E+00  0.00000000E+00
  0.00000000E+00  0.00000000E+00  0.00000000E+00
  0.00000000E+00  0.00000000E+00  0.00000000E+00
  0.00000000E+00  0.00000000E+00  0.00000000E+00
  0.00000000E+00  0.00000000E+00  0.00000000E+00
  0.00000000E+00  0.00000000E+00  0.00000000E+00
  0.00000000E+00  0.00000000E+00  0.00000000E+00
  0.00000000E+00  0.00000000E+00  0.00000000E+00
  0.00000000E+00  0.00000000E+00  0.00000000E+00
  0.00000000E+00  0.00000000E+00  0.00000000E+00
  0.00000000E+00  0.00000000E+00  0.00000000E+00
  0.00000000E+00  0.00000000E+00  0.00000000E+00
  0.00000000E+00  0.00000000E+00  0.00000000E+00
  0.00000000E+00  0.00000000E+00  0.00000000E+00
  0.00000000E+00  0.00000000E+00  0.00000000E+00
  0.00000000E+00  0.00000000E+00  0.00000000E+00
  0.00000000E+00  0.00000000E+00  0.00000000E+00
  0.00000000E+00  0.00000000E+00  0.00000000E+00
  0.00000000E+00  0.00000000E+00  0.00000000E+00
  0.00000000E+00  0.00000000E+00  0.00000000E+00
  0.00000000E+00  0.00000000E+00  0.00000000E+00
  0.00000000E+00  0.00000000E+00  0.00000000E+00
  0.00000000E+00  0.00000000E+00  0.00000000E+00
