O  Pd
 1.0000000000000000
     9.5317092920176041    0.0000000000000000    0.0000000000000000
     0.0000000000000000   12.8477517144159350    0.0000000000000000
     0.0000000000000000    0.0000000000000000   32.9250106989311746
 O   Pd 
  96  48
Selective dynamics
Cartesian
  3.1772364306725347  1.9784226604638762 16.1805566773331506   T   T   T
  7.9430910766813358  5.1903605890678604  4.2979121585342774   F   F   F
  3.1772364306725347  8.4022985176718432 16.1805566773331506   T   T   T
  3.1772364306725347 10.8693290539520575 15.1270985403969025   T   T   T
  4.7658546460088003  7.6573911253480746 17.9250106989311746   T   T   T
  4.7658546460088003 11.6142364462758287 17.9250106989311746   T   T   T
  3.1772364306725347  8.4022985176718432 11.6381904972008510   T   T   T
  3.1772364306725347 10.8693290539520575 10.5847323602645993   T   T   T
  4.7658546460088003  7.6573911253480746 13.3826445187988767   T   T   T
  4.7658546460088003 11.6142364462758287 13.3826445187988767   T   T   T
  3.1772364306725347  8.4022985176718432  7.0958243170685522   F   F   F
  3.1772364306725347 10.8693290539520575  6.0423661801322996   F   F   F
  4.7658546460088003  7.6573911253480746  8.8402783386665771   T   T   T
  4.7658546460088003 11.6142364462758287  8.8402783386665771   T   T   T
  3.1772364306725347  8.4022985176718432  2.5534581369362508   F   F   F
  3.1772364306725347 10.8693290539520575  1.5000000000000000   F   F   F
  4.7658546460088003  7.6573911253480746  4.2979121585342765   F   F   F
  4.7658546460088003 11.6142364462758287  4.2979121585342774   F   F   F
  6.3544728613450694 10.8693290539520575 15.1270985403969025   T   T   T
  3.1772364306725347  4.4454531967440909 15.1270985403969025   T   T   T
  4.7658546460088003  1.2335152681401071 17.9250106989311746   T   T   T
  4.7658546460088003  5.1903605890678604 17.9250106989311746   T   T   T
  3.1772364306725347  1.9784226604638762 11.6381904972008510   T   T   T
  3.1772364306725347  4.4454531967440909 10.5847323602645993   T   T   T
  4.7658546460088003  1.2335152681401071 13.3826445187988767   T   T   T
  4.7658546460088003  5.1903605890678604 13.3826445187988767   T   T   T
  7.9430910766813358  1.2335152681401071  4.2979121585342765   F   F   F
  3.1772364306725347  1.9784226604638762  7.0958243170685522   F   F   F
  6.3544728613450694  4.4454531967440909  1.5000000000000000   F   F   F
  7.9430910766813358  5.1903605890678604  8.8402783386665771   T   T   T
  7.9430910766813358  7.6573911253480746 17.9250106989311746   T   T   T
  7.9430910766813358 11.6142364462758287 17.9250106989311746   T   T   T
  6.3544728613450694  8.4022985176718432 11.6381904972008510   T   T   T
  6.3544728613450694 10.8693290539520575 10.5847323602645993   T   T   T
  7.9430910766813358  7.6573911253480746 13.3826445187988767   T   T   T
  7.9430910766813358 11.6142364462758287 13.3826445187988767   T   T   T
  6.3544728613450694  8.4022985176718432  7.0958243170685522   F   F   F
  6.3544728613450694 10.8693290539520575  6.0423661801322996   F   F   F
  7.9430910766813358  7.6573911253480746  8.8402783386665771   T   T   T
  7.9430910766813358 11.6142364462758287  8.8402783386665771   T   T   T
  6.3544728613450694  8.4022985176718432  2.5534581369362508   F   F   F
  6.3544728613450694 10.8693290539520575  1.5000000000000000   F   F   F
  7.9430910766813358  7.6573911253480746  4.2979121585342765   F   F   F
  7.9430910766813358 11.6142364462758287  4.2979121585342774   F   F   F
  6.3544728613450694  1.9784226604638762 16.1805566773331506   T   T   T
  6.3544728613450694  4.4454531967440909 15.1270985403969025   T   T   T
  7.9430910766813358  1.2335152681401071 17.9250106989311746   T   T   T
  7.9430910766813358  5.1903605890678604 17.9250106989311746   T   T   T
  6.3544728613450694  1.9784226604638762 11.6381904972008510   T   T   T
  6.3544728613450694  4.4454531967440909 10.5847323602645993   T   T   T
  7.9430910766813358  1.2335152681401071 13.3826445187988767   T   T   T
  7.9430910766813358  5.1903605890678604 13.3826445187988767   T   T   T
  6.3544728613450694  1.9784226604638762  7.0958243170685522   F   F   F
  6.3544728613450694  4.4454531967440909  6.0423661801322996   F   F   F
  7.9430910766813358  1.2335152681401071  8.8402783386665771   T   T   T
  6.3544728613450694  1.9784226604638762  2.5534581369362508   F   F   F
  3.1772364306725347  4.4454531967440909  6.0423661801322996   F   F   F
  6.3544728613450694  8.4022985176718432 16.1805566773331506   T   T   T
  4.7658546460088003  5.1903605890678604  8.8402783386665771   T   T   T
  0.0000000000000000 10.8693290539520575  6.0423661801322996   F   F   F
  1.5886182153362669  7.6573911253480746  8.8402783386665771   T   T   T
  1.5886182153362669 11.6142364462758287  8.8402783386665771   T   T   T
  0.0000000000000000  8.4022985176718432  2.5534581369362508   F   F   F
  4.7658546460088003  1.2335152681401071  8.8402783386665771   T   T   T
  1.5886182153362669  7.6573911253480746  4.2979121585342765   F   F   F
  1.5886182153362669 11.6142364462758287  4.2979121585342774   F   F   F
  0.0000000000000000  1.9784226604638762 16.1805566773331506   T   T   T
  0.0000000000000000  4.4454531967440909 15.1270985403969025   T   T   T
  1.5886182153362669  1.2335152681401071 17.9250106989311746   T   T   T
  1.5886182153362669  5.1903605890678604 17.9250106989311746   T   T   T
  0.0000000000000000  1.9784226604638762 11.6381904972008510   T   T   T
  0.0000000000000000  4.4454531967440909 10.5847323602645993   T   T   T
  1.5886182153362669  1.2335152681401071 13.3826445187988767   T   T   T
  1.5886182153362669  5.1903605890678604 13.3826445187988767   T   T   T
  0.0000000000000000  1.9784226604638762  7.0958243170685522   F   F   F
  0.0000000000000000  4.4454531967440909  6.0423661801322996   F   F   F
  1.5886182153362669  1.2335152681401071  8.8402783386665771   T   T   T
  1.5886182153362669  5.1903605890678604  8.8402783386665771   T   T   T
  0.0000000000000000  1.9784226604638762  2.5534581369362508   F   F   F
  0.0000000000000000  4.4454531967440909  1.5000000000000000   F   F   F
  1.5886182153362669  1.2335152681401071  4.2979121585342765   F   F   F
  1.5886182153362669  5.1903605890678604  4.2979121585342774   F   F   F
  0.0000000000000000  8.4022985176718432  7.0958243170685522   F   F   F
  1.5886182153362669 11.6142364462758287 13.3826445187988767   T   T   T
  0.0000000000000000 10.8693290539520575  1.5000000000000000   F   F   F
  3.1772364306725347  1.9784226604638762  2.5534581369362508   F   F   F
  1.5886182153362669 11.6142364462758287 17.9250106989311746   T   T   T
  4.7658546460088003  5.1903605890678604  4.2979121585342774   F   F   F
  1.5886182153362669  7.6573911253480746 17.9250106989311746   T   T   T
  0.0000000000000000 10.8693290539520575 15.1270985403969025   T   T   T
  3.1772364306725347  4.4454531967440909  1.5000000000000000   F   F   F
  0.0000000000000000  8.4022985176718432 11.6381904972008510   T   T   T
  4.7658546460088003  1.2335152681401071  4.2979121585342765   F   F   F
  0.0000000000000000  8.4022985176718432 16.1805566773331506   T   T   T
  0.0000000000000000 10.8693290539520575 10.5847323602645993   T   T   T
  1.5886182153362669  7.6573911253480746 13.3826445187988767   T   T   T
  0.0000000000000000  0.0000000000000000 13.3826445187988767   T   T   T
  4.7658546460088003  3.2119379286039829 17.9250106989311746   T   T   T
  7.9430910766813358  9.6358137858119512  8.8402783386665753   T   T   T
  6.3544728613450694  6.4238758572079666  8.8402783386665771   T   T   T
  6.3544728613450694  6.4238758572079666  4.2979121585342765   F   F   F
  7.9430910766813358  9.6358137858119512  4.2979121585342765   F   F   F
  3.1772364306725347  0.0000000000000000 17.9250106989311746   T   T   T
  1.5886182153362669  3.2119379286039829 13.3826445187988767   T   T   T
  3.1772364306725347  6.4238758572079666 13.3826445187988767   T   T   T
  7.9430910766813358  9.6358137858119512 13.3826445187988767   T   T   T
  6.3544728613450694  6.4238758572079666 13.3826445187988767   T   T   T
  1.5886182153362669  3.2119379286039829  8.8402783386665753   T   T   T
  4.7658546460088003  3.2119379286039829  8.8402783386665753   T   T   T
  3.1772364306725347  0.0000000000000000 13.3826445187988767   T   T   T
  4.7658546460088003  3.2119379286039829 13.3826445187988767   T   T   T
  7.9430910766813358  9.6358137858119512 17.9250106989311746   T   T   T
  6.3544728613450694  6.4238758572079666 17.9250106989311746   T   T   T
  3.1772364306725347  0.0000000000000000  8.8402783386665771   T   T   T
  0.0000000000000000  0.0000000000000000  4.2979121585342765   F   F   F
  0.0000000000000000  0.0000000000000000  8.8402783386665771   T   T   T
  3.1772364306725347  0.0000000000000000  4.2979121585342765   F   F   F
  7.9430910766813358  3.2119379286039829 17.9250106989311746   T   T   T
  1.5886182153362669  3.2119379286039829 17.9250106989311746   T   T   T
  0.0000000000000000  6.4238758572079666 13.3826445187988767   T   T   T
  1.5886182153362669  9.6358137858119512 13.3826445187988767   T   T   T
  4.7658546460088003  9.6358137858119512 17.9250106989311746   T   T   T
  3.1772364306725347  6.4238758572079666 17.9250106989311746   T   T   T
  1.5886182153362669  9.6358137858119512 17.9250106989311746   T   T   T
  3.1772364306725347  6.4238758572079666  8.8402783386665771   T   T   T
  0.0000000000000000  6.4238758572079666  8.8402783386665771   T   T   T
  7.9430910766813358  3.2119379286039829  4.2979121585342765   F   F   F
  6.3544728613450694  0.0000000000000000  4.2979121585342765   F   F   F
  1.5886182153362669  9.6358137858119512  8.8402783386665753   T   T   T
  4.7658546460088003  9.6358137858119512  8.8402783386665753   T   T   T
  0.0000000000000000  6.4238758572079666 17.9250106989311746   T   T   T
  7.9430910766813358  3.2119379286039829  8.8402783386665753   T   T   T
  6.3544728613450694  0.0000000000000000  8.8402783386665771   T   T   T
  0.0000000000000000  6.4238758572079666  4.2979121585342765   F   F   F
  1.5886182153362669  9.6358137858119512  4.2979121585342765   F   F   F
  7.9430910766813358  3.2119379286039829 13.3826445187988767   T   T   T
  6.3544728613450694  0.0000000000000000 13.3826445187988767   T   T   T
  3.1772364306725347  6.4238758572079666  4.2979121585342765   F   F   F
  4.7658546460088003  9.6358137858119512  4.2979121585342765   F   F   F
  0.0000000000000000  0.0000000000000000 17.9250106989311746   T   T   T
  4.7658546460088003  9.6358137858119512 13.3826445187988767   T   T   T
  6.3544728613450694  0.0000000000000000 17.9250106989311746   T   T   T
  4.7658546460088003  3.2119379286039829  4.2979121585342765   F   F   F
  1.5886182153362669  3.2119379286039829  4.2979121585342765   F   F   F
