O  Pd
 1.0000000000000000
     9.5317092920176041    0.0000000000000000    0.0000000000000000
     0.0000000000000000   12.8477517144159332    0.0000000000000000
     0.0000000000000000    0.0000000000000000   32.1028443220921673
 O   Pd 
  96  48
Selective dynamics
Cartesian
  3.1772364306725356  4.8179068929059738 11.1358137858119512   T   T   T
  1.5886182153362687  0.3724536961618821 12.3693290539520557   T   T   T
  1.5886182153362687  2.8394842324420977 12.3693290539520557   T   T   T
  0.0000000000000014  4.8179068929059738 13.6028443220921673   T   T   T
  0.0000000000000010  4.8179068929059738 11.1358137858119512   T   T   T
  1.5886182153362680 10.0082674819738351  2.7335152681401080   F   F   F
  1.5886182153362673 12.4752980182540494  2.7335152681401071   F   F   F
  4.7658546460088029  2.8394842324420977  5.9454531967440909   T   T   T
  0.0000000000000002  8.0298448215099576  1.5000000000000000   F   F   F
  1.5886182153362680  6.7963295533698496  5.9454531967440918   T   T   T
  0.0000000000000007  1.6059689643019908  7.9238758572079666   T   T   T
  1.5886182153362680  9.2633600896500639  5.9454531967440909   T   T   T
  4.7658546460088029  0.3724536961618832  5.9454531967440918   T   T   T
  6.3544728613450703 11.2417827501139413 11.1358137858119512   T   T   T
  3.1772364306725356  4.8179068929059747  7.1789684648841980   T   T   T
  6.3544728613450694  1.6059689643019914  1.5000000000000000   F   F   F
  7.9430910766813385  2.8394842324420977  5.9454531967440909   T   T   T
  6.3544728613450703  4.8179068929059747  7.1789684648841980   T   T   T
  6.3544728613450703  4.8179068929059738  4.7119379286039837   F   F   F
  7.9430910766813385  3.5843916247658658  9.1573911253480738   T   T   T
  7.9430910766813385  6.0514221610460810  9.1573911253480738   T   T   T
  0.0000000000000008 11.2417827501139413  7.1789684648841980   T   T   T
  1.5886182153362680  6.0514221610460810  9.1573911253480738   T   T   T
  1.5886182153362687  3.5843916247658658  9.1573911253480738   T   T   T
  0.0000000000000004  4.8179068929059738  4.7119379286039837   F   F   F
  1.5886182153362680 12.4752980182540494  9.1573911253480738   T   T   T
  0.0000000000000011  8.0298448215099576 10.3909063934881836   T   T   T
  0.0000000000000010 11.2417827501139413 11.1358137858119512   T   T   T
  4.7658546460088012  6.0514221610460819  2.7335152681401071   F   F   F
  0.0000000000000007  8.0298448215099576  7.9238758572079666   T   T   T
  3.1772364306725351  1.6059689643019914  3.9670305362802143   F   F   F
  0.0000000000000014 11.2417827501139413 13.6028443220921673   T   T   T
  1.5886182153362687  9.2633600896500639 12.3693290539520557   T   T   T
  4.7658546460088029  3.5843916247658671  2.7335152681401080   F   F   F
  1.5886182153362687  6.7963295533698496 12.3693290539520557   T   T   T
  3.1772364306725347  1.6059689643019914  1.5000000000000000   F   F   F
  0.0000000000000006  8.0298448215099576  3.9670305362802143   F   F   F
  1.5886182153362687 10.0082674819738315  9.1573911253480738   T   T   T
  0.0000000000000004 11.2417827501139413  4.7119379286039837   F   F   F
  1.5886182153362680  3.5843916247658671  2.7335152681401080   F   F   F
  1.5886182153362673  6.0514221610460819  2.7335152681401071   F   F   F
  0.0000000000000006  1.6059689643019914  3.9670305362802143   F   F   F
  0.0000000000000002  1.6059689643019914  1.5000000000000000   F   F   F
  1.5886182153362680  0.3724536961618832  5.9454531967440918   T   T   T
  1.5886182153362680  2.8394842324420977  5.9454531967440909   T   T   T
  0.0000000000000008  4.8179068929059747  7.1789684648841980   T   T   T
  6.3544728613450703  1.6059689643019908 10.3909063934881836   T   T   T
  6.3544728613450703  1.6059689643019908  7.9238758572079666   T   T   T
  0.0000000000000011  1.6059689643019908 10.3909063934881836   T   T   T
  7.9430910766813385  2.8394842324420977 12.3693290539520557   T   T   T
  4.7658546460088029  0.3724536961618821 12.3693290539520557   T   T   T
  4.7658546460088029  2.8394842324420977 12.3693290539520557   T   T   T
  3.1772364306725360  4.8179068929059738 13.6028443220921673   T   T   T
  6.3544728613450712 11.2417827501139413 13.6028443220921673   T   T   T
  4.7658546460088029 10.0082674819738351  2.7335152681401080   F   F   F
  4.7658546460088012 12.4752980182540494  2.7335152681401071   F   F   F
  3.1772364306725351  8.0298448215099576  3.9670305362802143   F   F   F
  3.1772364306725347  8.0298448215099576  1.5000000000000000   F   F   F
  4.7658546460088029  9.2633600896500639  5.9454531967440909   T   T   T
  3.1772364306725356 11.2417827501139413  7.1789684648841980   T   T   T
  3.1772364306725351 11.2417827501139413  4.7119379286039837   F   F   F
  4.7658546460088029 10.0082674819738315  9.1573911253480738   T   T   T
  4.7658546460088029 12.4752980182540494  9.1573911253480738   T   T   T
  3.1772364306725360  8.0298448215099576 10.3909063934881836   T   T   T
  3.1772364306725356  8.0298448215099576  7.9238758572079666   T   T   T
  4.7658546460088029  6.7963295533698496 12.3693290539520557   T   T   T
  4.7658546460088029  9.2633600896500639 12.3693290539520557   T   T   T
  3.1772364306725360 11.2417827501139413 13.6028443220921673   T   T   T
  3.1772364306725356 11.2417827501139413 11.1358137858119512   T   T   T
  7.9430910766813385  3.5843916247658671  2.7335152681401080   F   F   F
  7.9430910766813385  0.3724536961618821 12.3693290539520557   T   T   T
  3.1772364306725356  1.6059689643019908  7.9238758572079666   T   T   T
  3.1772364306725360  1.6059689643019908 10.3909063934881836   T   T   T
  4.7658546460088029  6.7963295533698496  5.9454531967440918   T   T   T
  6.3544728613450712  4.8179068929059738 13.6028443220921673   T   T   T
  4.7658546460088029  6.0514221610460810  9.1573911253480738   T   T   T
  6.3544728613450703  4.8179068929059738 11.1358137858119512   T   T   T
  7.9430910766813385 10.0082674819738351  2.7335152681401080   F   F   F
  7.9430910766813367 12.4752980182540494  2.7335152681401071   F   F   F
  6.3544728613450703  8.0298448215099576  3.9670305362802143   F   F   F
  6.3544728613450694  8.0298448215099576  1.5000000000000000   F   F   F
  7.9430910766813385  6.7963295533698496  5.9454531967440918   T   T   T
  6.3544728613450703 11.2417827501139413  7.1789684648841980   T   T   T
  6.3544728613450703 11.2417827501139413  4.7119379286039837   F   F   F
  7.9430910766813385 10.0082674819738315  9.1573911253480738   T   T   T
  7.9430910766813385  9.2633600896500639  5.9454531967440909   T   T   T
  6.3544728613450703  8.0298448215099576 10.3909063934881836   T   T   T
  4.7658546460088029  3.5843916247658658  9.1573911253480738   T   T   T
  7.9430910766813385 12.4752980182540494  9.1573911253480738   T   T   T
  3.1772364306725351  4.8179068929059738  4.7119379286039837   F   F   F
  6.3544728613450703  1.6059689643019914  3.9670305362802143   F   F   F
  7.9430910766813385  0.3724536961618832  5.9454531967440918   T   T   T
  7.9430910766813367  6.0514221610460819  2.7335152681401071   F   F   F
  7.9430910766813385  6.7963295533698496 12.3693290539520557   T   T   T
  6.3544728613450703  8.0298448215099576  7.9238758572079666   T   T   T
  7.9430910766813385  9.2633600896500639 12.3693290539520557   T   T   T
  4.7658546460088029 11.2417827501139413  5.9454531967440909   T   T   T
  4.7658546460088029 11.2417827501139413 12.3693290539520557   T   T   T
  3.1772364306725356  8.0298448215099576 12.3693290539520557   T   T   T
  1.5886182153362687 11.2417827501139413 12.3693290539520557   T   T   T
  3.1772364306725351  8.0298448215099576  5.9454531967440909   T   T   T
  0.0000000000000004  8.0298448215099576  5.9454531967440909   T   T   T
  7.9430910766813385  1.6059689643019917  2.7335152681401071   F   F   F
  6.3544728613450694  4.8179068929059756  2.7335152681401071   F   F   F
  1.5886182153362680 11.2417827501139413  5.9454531967440909   T   T   T
  0.0000000000000010  8.0298448215099576 12.3693290539520557   T   T   T
  6.3544728613450703  1.6059689643019908 12.3693290539520557   T   T   T
  6.3544728613450694  1.6059689643019908  5.9454531967440909   T   T   T
  0.0000000000000001 11.2417827501139413  2.7335152681401071   F   F   F
  1.5886182153362678  8.0298448215099576  2.7335152681401071   F   F   F
  7.9430910766813385  1.6059689643019894  9.1573911253480738   T   T   T
  6.3544728613450703  4.8179068929059738  9.1573911253480773   T   T   T
  3.1772364306725347 11.2417827501139413  2.7335152681401071   F   F   F
  4.7658546460088029  8.0298448215099576  2.7335152681401071   F   F   F
  0.0000000000000010  1.6059689643019908 12.3693290539520557   T   T   T
  4.7658546460088029  8.0298448215099576  9.1573911253480738   T   T   T
  1.5886182153362687  8.0298448215099576  9.1573911253480738   T   T   T
  7.9430910766813385  4.8179068929059747  5.9454531967440909   T   T   T
  0.0000000000000007 11.2417827501139396  9.1573911253480773   T   T   T
  0.0000000000000007  4.8179068929059738  9.1573911253480773   T   T   T
  7.9430910766813385  4.8179068929059756 12.3693290539520557   T   T   T
  4.7658546460088029  1.6059689643019917  2.7335152681401071   F   F   F
  4.7658546460088029  4.8179068929059756 12.3693290539520557   T   T   T
  7.9430910766813385 11.2417827501139413  5.9454531967440909   T   T   T
  6.3544728613450694  8.0298448215099576  5.9454531967440909   T   T   T
  6.3544728613450694 11.2417827501139413  2.7335152681401071   F   F   F
  7.9430910766813385  8.0298448215099576  2.7335152681401071   F   F   F
  3.1772364306725356  1.6059689643019908 12.3693290539520557   T   T   T
  1.5886182153362687  1.6059689643019894  9.1573911253480738   T   T   T
  3.1772364306725356 11.2417827501139396  9.1573911253480773   T   T   T
  7.9430910766813385  8.0298448215099576  9.1573911253480738   T   T   T
  6.3544728613450703 11.2417827501139396  9.1573911253480773   T   T   T
  1.5886182153362680  4.8179068929059747  5.9454531967440909   T   T   T
  4.7658546460088029  4.8179068929059747  5.9454531967440909   T   T   T
  3.1772364306725356  4.8179068929059738  9.1573911253480773   T   T   T
  4.7658546460088029  1.6059689643019894  9.1573911253480738   T   T   T
  7.9430910766813385 11.2417827501139413 12.3693290539520557   T   T   T
  6.3544728613450703  8.0298448215099576 12.3693290539520557   T   T   T
  3.1772364306725351  1.6059689643019908  5.9454531967440909   T   T   T
  0.0000000000000001  4.8179068929059756  2.7335152681401071   F   F   F
  0.0000000000000004  1.6059689643019908  5.9454531967440909   T   T   T
  3.1772364306725347  4.8179068929059756  2.7335152681401071   F   F   F
  1.5886182153362687  4.8179068929059756 12.3693290539520557   T   T   T
  1.5886182153362678  1.6059689643019917  2.7335152681401071   F   F   F
