O  Pd
 1.0000000000000000
     9.5317092920176041    0.0000000000000000    0.0000000000000000
     0.0000000000000000    9.0847323602645993   -9.0847323602645993
     0.0000000000000000    0.0000000000000000   38.3396038898624880
 O   Pd 
  96  48
Selective dynamics
Cartesian
  3.1772364306725351  1.3989560792671372 20.1961937889973271   T   T   T
  7.9430910766813385  3.6701391693332872  6.0423661801322996   F   F   F
  3.1772364306725351  5.9413222593994348 15.6538276088650292   T   T   T
  3.1772364306725351  7.6857762809974606 17.3982816304630497   T   T   T
  4.7658546460088003  5.4145931909313108 17.9250106989311746   T   T   T
  4.7658546460088029  8.2125053494655873 15.1270985403969025   T   T   T
  3.1772364306725351  5.9413222593994348 11.1114614287327260   F   F   F
  3.1772364306725351  7.6857762809974606 12.8559154503307571   T   T   T
  4.7658546460088003  5.4145931909313108 13.3826445187988750   T   T   T
  4.7658546460088029  8.2125053494655873 10.5847323602645993   F   F   F
  3.1772364306725351  5.9413222593994348  6.5690952486004264   F   F   F
  3.1772364306725351  7.6857762809974606  8.3135492701984486   F   F   F
  4.7658546460088003  5.4145931909313108  8.8402783386665753   F   F   F
  4.7658546460088029  8.2125053494655873  6.0423661801323023   F   F   F
  3.1772364306725351  5.9413222593994348  2.0267290684681258   F   F   F
  3.1772364306725351  7.6857762809974606  3.7711830900661503   F   F   F
  4.7658546460088003  5.4145931909313108  4.2979121585342757   F   F   F
  4.7658546460088029  8.2125053494655873  1.4999999999999996   F   F   F
  6.3544728613450703  7.6857762809974606 17.3982816304630497   T   T   T
  3.1772364306725351  3.1434101008651623 21.9406478105953475   T   T   T
  4.7658546460088003  0.8722270107990122 22.4673768790634725   T   T   T
  4.7658546460088029  3.6701391693332872 19.6694647205291986   T   T   T
  3.1772364306725351  1.3989560792671372 15.6538276088650239   T   T   T
  3.1772364306725351  3.1434101008651623 17.3982816304630497   T   T   T
  4.7658546460088003  0.8722270107990122 17.9250106989311746   T   T   T
  4.7658546460088029  3.6701391693332872 15.1270985403968989   T   T   T
  7.9430910766813367  0.8722270107990122  8.8402783386665753   F   F   F
  3.1772364306725351  1.3989560792671372 11.1114614287327242   F   F   F
  6.3544728613450703  3.1434101008651623  8.3135492701984486   F   F   F
  7.9430910766813385  3.6701391693332872 10.5847323602646011   F   F   F
  7.9430910766813367  5.4145931909313108 17.9250106989311746   T   T   T
  7.9430910766813385  8.2125053494655873 15.1270985403969025   T   T   T
  6.3544728613450694  5.9413222593994348 11.1114614287327260   F   F   F
  6.3544728613450703  7.6857762809974606 12.8559154503307571   T   T   T
  7.9430910766813367  5.4145931909313108 13.3826445187988750   T   T   T
  7.9430910766813385  8.2125053494655873 10.5847323602645993   F   F   F
  6.3544728613450694  5.9413222593994348  6.5690952486004264   F   F   F
  6.3544728613450703  7.6857762809974606  8.3135492701984486   F   F   F
  7.9430910766813367  5.4145931909313108  8.8402783386665753   F   F   F
  7.9430910766813385  8.2125053494655873  6.0423661801323023   F   F   F
  6.3544728613450694  5.9413222593994348  2.0267290684681258   F   F   F
  6.3544728613450703  7.6857762809974606  3.7711830900661503   F   F   F
  7.9430910766813367  5.4145931909313108  4.2979121585342757   F   F   F
  7.9430910766813385  8.2125053494655873  1.4999999999999996   F   F   F
  6.3544728613450694  1.3989560792671372 20.1961937889973271   T   T   T
  6.3544728613450703  3.1434101008651623 21.9406478105953475   T   T   T
  7.9430910766813367  0.8722270107990122 22.4673768790634725   T   T   T
  7.9430910766813385  3.6701391693332872 19.6694647205291986   T   T   T
  6.3544728613450694  1.3989560792671372 15.6538276088650239   T   T   T
  6.3544728613450703  3.1434101008651623 17.3982816304630497   T   T   T
  7.9430910766813367  0.8722270107990122 17.9250106989311746   T   T   T
  7.9430910766813385  3.6701391693332872 15.1270985403968989   T   T   T
  6.3544728613450694  1.3989560792671372 11.1114614287327242   F   F   F
  6.3544728613450703  3.1434101008651623 12.8559154503307500   T   T   T
  7.9430910766813367  0.8722270107990122 13.3826445187988732   T   T   T
  6.3544728613450694  1.3989560792671372  6.5690952486004237   F   F   F
  3.1772364306725351  3.1434101008651623 12.8559154503307500   T   T   T
  6.3544728613450694  5.9413222593994348 15.6538276088650292   T   T   T
  4.7658546460088029  3.6701391693332872 10.5847323602646011   F   F   F
  0.0000000000000005  7.6857762809974606  8.3135492701984486   F   F   F
  1.5886182153362676  5.4145931909313108  8.8402783386665753   F   F   F
  1.5886182153362680  8.2125053494655873  6.0423661801323023   F   F   F
  0.0000000000000002  5.9413222593994348  2.0267290684681258   F   F   F
  4.7658546460088003  0.8722270107990122 13.3826445187988732   T   T   T
  1.5886182153362676  5.4145931909313108  4.2979121585342757   F   F   F
  1.5886182153362680  8.2125053494655873  1.4999999999999996   F   F   F
  0.0000000000000002  1.3989560792671372 20.1961937889973271   T   T   T
  0.0000000000000005  3.1434101008651623 21.9406478105953475   T   T   T
  1.5886182153362676  0.8722270107990122 22.4673768790634725   T   T   T
  1.5886182153362680  3.6701391693332872 19.6694647205291986   T   T   T
  0.0000000000000002  1.3989560792671372 15.6538276088650239   T   T   T
  0.0000000000000005  3.1434101008651623 17.3982816304630497   T   T   T
  1.5886182153362676  0.8722270107990122 17.9250106989311746   T   T   T
  1.5886182153362680  3.6701391693332872 15.1270985403968989   T   T   T
  0.0000000000000002  1.3989560792671372 11.1114614287327242   F   F   F
  0.0000000000000005  3.1434101008651623 12.8559154503307500   T   T   T
  1.5886182153362676  0.8722270107990122 13.3826445187988732   T   T   T
  1.5886182153362680  3.6701391693332872 10.5847323602646011   F   F   F
  0.0000000000000002  1.3989560792671372  6.5690952486004237   F   F   F
  0.0000000000000005  3.1434101008651623  8.3135492701984486   F   F   F
  1.5886182153362676  0.8722270107990122  8.8402783386665753   F   F   F
  1.5886182153362680  3.6701391693332872  6.0423661801322996   F   F   F
  0.0000000000000002  5.9413222593994348  6.5690952486004264   F   F   F
  1.5886182153362680  8.2125053494655873 10.5847323602645993   F   F   F
  0.0000000000000005  7.6857762809974606  3.7711830900661503   F   F   F
  3.1772364306725351  1.3989560792671372  6.5690952486004237   F   F   F
  1.5886182153362680  8.2125053494655873 15.1270985403969025   T   T   T
  4.7658546460088029  3.6701391693332872  6.0423661801322996   F   F   F
  1.5886182153362676  5.4145931909313108 17.9250106989311746   T   T   T
  0.0000000000000005  7.6857762809974606 17.3982816304630497   T   T   T
  3.1772364306725351  3.1434101008651623  8.3135492701984486   F   F   F
  0.0000000000000002  5.9413222593994348 11.1114614287327260   F   F   F
  4.7658546460088003  0.8722270107990122  8.8402783386665753   F   F   F
  0.0000000000000002  5.9413222593994348 15.6538276088650292   T   T   T
  0.0000000000000005  7.6857762809974606 12.8559154503307571   T   T   T
  1.5886182153362676  5.4145931909313108 13.3826445187988750   T   T   T
  0.0000000000000000  0.0000000000000000 18.7972377097301866   T   T   T
  4.7658546460088029  2.2711830900661498 21.0684207997963355   T   T   T
  7.9430910766813385  6.8135492701984495  7.4413222593994357   F   F   F
  6.3544728613450694  4.5423661801322979  9.7125053494655873   F   F   F
  6.3544728613450694  4.5423661801322979  5.1701391693332885   F   F   F
  7.9430910766813385  6.8135492701984495  2.8989560792671374   F   F   F
  3.1772364306725347  0.0000000000000000 23.3396038898624880   T   T   T
  1.5886182153362678  2.2711830900661498 16.5260546196640377   T   T   T
  3.1772364306725347  4.5423661801322979 14.2548715295978887   T   T   T
  7.9430910766813385  6.8135492701984495 11.9836884395317362   F   F   F
  6.3544728613450694  4.5423661801322979 14.2548715295978887   T   T   T
  1.5886182153362678  2.2711830900661498 11.9836884395317362   F   F   F
  4.7658546460088029  2.2711830900661498 11.9836884395317362   F   F   F
  3.1772364306725347  0.0000000000000000 18.7972377097301866   T   T   T
  4.7658546460088029  2.2711830900661498 16.5260546196640377   T   T   T
  7.9430910766813385  6.8135492701984495 16.5260546196640412   T   T   T
  6.3544728613450694  4.5423661801322979 18.7972377097301866   T   T   T
  3.1772364306725347  0.0000000000000000 14.2548715295978852   T   T   T
  0.0000000000000000  0.0000000000000000  9.7125053494655873   F   F   F
  0.0000000000000000  0.0000000000000000 14.2548715295978852   T   T   T
  3.1772364306725347  0.0000000000000000  9.7125053494655873   F   F   F
  7.9430910766813385  2.2711830900661498 21.0684207997963355   T   T   T
  1.5886182153362678  2.2711830900661498 21.0684207997963355   T   T   T
  0.0000000000000000  4.5423661801322979 14.2548715295978887   T   T   T
  1.5886182153362678  6.8135492701984495 11.9836884395317362   F   F   F
  4.7658546460088029  6.8135492701984495 16.5260546196640412   T   T   T
  3.1772364306725347  4.5423661801322979 18.7972377097301866   T   T   T
  1.5886182153362678  6.8135492701984495 16.5260546196640412   T   T   T
  3.1772364306725347  4.5423661801322979  9.7125053494655873   F   F   F
  0.0000000000000000  4.5423661801322979  9.7125053494655873   F   F   F
  7.9430910766813385  2.2711830900661498  7.4413222593994366   F   F   F
  6.3544728613450694  0.0000000000000000  9.7125053494655873   F   F   F
  1.5886182153362678  6.8135492701984495  7.4413222593994357   F   F   F
  4.7658546460088029  6.8135492701984495  7.4413222593994357   F   F   F
  0.0000000000000000  4.5423661801322979 18.7972377097301866   T   T   T
  7.9430910766813385  2.2711830900661498 11.9836884395317362   F   F   F
  6.3544728613450694  0.0000000000000000 14.2548715295978852   T   T   T
  0.0000000000000000  4.5423661801322979  5.1701391693332885   F   F   F
  1.5886182153362678  6.8135492701984495  2.8989560792671374   F   F   F
  7.9430910766813385  2.2711830900661498 16.5260546196640377   T   T   T
  6.3544728613450694  0.0000000000000000 18.7972377097301866   T   T   T
  3.1772364306725347  4.5423661801322979  5.1701391693332885   F   F   F
  4.7658546460088029  6.8135492701984495  2.8989560792671374   F   F   F
  0.0000000000000000  0.0000000000000000 23.3396038898624880   T   T   T
  4.7658546460088029  6.8135492701984495 11.9836884395317362   F   F   F
  6.3544728613450694  0.0000000000000000 23.3396038898624880   T   T   T
  4.7658546460088029  2.2711830900661498  7.4413222593994366   F   F   F
  1.5886182153362678  2.2711830900661498  7.4413222593994366   F   F   F
