Pd O                                    
    1.000000000000000     
     4.5222304600028309    0.0000000000000000    0.0000000000000003
     0.0000000000000007    4.5222304600028309    0.0000000000000003
     0.0000000000000000    0.0000000000000000    3.1462736300000000
   Pd   O 
     2     4
Direct
  0.5000000000000000  0.5000000000000000  0.5000000000000000
  0.0000000000000000  0.0000000000000000  0.0000000000000000
  0.8081519200000002  0.1918480799999998  0.5000000000000000
  0.1918480799999998  0.8081519200000002  0.5000000000000000
  0.3081519200000002  0.3081519200000002  0.0000000000000000
  0.6918480799999998  0.6918480799999998  0.0000000000000000
 
  0.00000000E+00  0.00000000E+00  0.00000000E+00
  0.00000000E+00  0.00000000E+00  0.00000000E+00
  0.00000000E+00  0.00000000E+00  0.00000000E+00
  0.00000000E+00  0.00000000E+00  0.00000000E+00
  0.00000000E+00  0.00000000E+00  0.00000000E+00
  0.00000000E+00  0.00000000E+00  0.00000000E+00
