Automatic mesh
0
Gamma
  8  8  10
  0  0  0
