C  H  O  Pd
 1.0000000000000000
    12.2143708368485502    0.0000000000000000    0.0000000000000007
     0.0000000000000017   10.8116922467861709    0.0000000000000007
     0.0000000000000000    0.0000000000000000   29.2503334901734533
 C   H   O   Pd 
   2   3  50  56
Selective dynamics
Direct
  0.3600604539931413  0.0777585589226874  0.4319230427211940   T   T   T
  0.1404137611231986 -0.2010365008549185  0.4178025209092915   T   T   T
  0.3692919763373019  0.0218366164929766  0.4002974548324570   T   T   T
  0.4283958018384971  0.0571470179137294  0.4554981429994420   T   T   T
  0.2819637484398662  0.0538023157096977  0.4486819929154987   T   T   T
  0.5000000000000000  0.1250000000000000  0.1034790374483450   F   F   F
  0.5000000000000000  0.3750000000000000  0.1034790374483450   F   F   F
  0.2483662816606328  0.8758162098906263  0.3124681376890289   T   T   T
  0.2499526538372956  0.6252534965291356  0.2083524160118090   F   F   F
  0.2498757330758815  0.8748569288690057  0.2085406662454599   F   F   F
  0.2500000000000000  0.6250000000000000  0.1034790374483450   F   F   F
  0.2484014959606862  0.6229931811258500  0.3121601732324050   T   T   T
  0.5000000000000000  0.8750000000000001  0.1034790374483450   F   F   F
  0.5000000000000000  0.6250000000000000  0.1034790374483450   F   F   F
  0.4999703697310784  0.8746359580267576  0.2086568909067676   T   T   T
  0.7469979041733752  0.6243056056803534  0.3152829756312777   T   T   T
  0.5002452755370513  0.3741840503114262  0.2087586985942885   T   T   T
  0.7472934833943292  0.8753078565261193  0.3147904472202870   T   T   T
  0.7500266192337071  0.6256601146867937  0.2088462252716333   T   T   T
  0.7499426464729555  0.8740688963050319  0.2089081603467044   T   T   T
  0.7500000000000000  0.6250000000000000  0.1034790374483450   F   F   F
  0.2500000000000000  0.8750000000000001  0.1034790374483450   F   F   F
  0.7500000000000000  0.8750000000000001  0.1034790374483450   F   F   F
  0.1444418192370929 -0.1584343750905828  0.4553023464870941   T   T   T
  0.3612556472556492  0.2078366504580343  0.4218884889370586   T   T   T
  0.4999759083389766  0.6253853850147588  0.2085864697442695   T   T   T
  0.5001704546160625  0.1250959510181976  0.2084887911667044   F   F   F
  0.4973622129043204  0.1231548548537672  0.3132119828138252   T   T   T
  0.7499999407901679  0.1253564590539261  0.2086346494759109   T   T   T
  0.4998077289348428  0.3748045202801834  0.3134122294000423   T   T   T
  0.0000000000000000  0.6250000000000000  0.1034790374483450   F   F   F
  0.2469028297521083  0.1230284916831808  0.3127454996164184   T   T   T
  0.7458546851662705  0.3740536766196149  0.3153718652480571   T   T   T
  0.4965782561611223  0.8759424336057888  0.3133408985786109   T   T   T
  0.4959706528157645  0.6224931577008329  0.3132604962883873   T   T   T
  0.7500000000000000  0.3750000000000000  0.1034790374483450   F   F   F
  0.2420188265935102  0.3762810597576350  0.3120087286115180   T   T   T
  0.0000001717890977  0.6253564676804197  0.2086346535078811   T   T   T
  0.9964382470659874  0.8747391965715452  0.3140196009798646   T   T   T
  0.9981666258495048  0.1238746762971691  0.3145860004809879   T   T   T
  0.9970913214956677  0.3751147958678097  0.3148422507771716   T   T   T
 -0.0003078840694398  0.8743805194280146  0.2087785664124170   T   T   T
  0.0000000906673265  0.3746433398517112  0.2086346491200444   T   T   T
  0.2500000000000000  0.3750000000000000  0.1034790374483450   F   F   F
 -0.0000000000000000  0.8750000000000001  0.1034790374483450   F   F   F
  0.2495388125389722  0.3744032828857568  0.2086109396188145   T   T   T
  0.2500000000000000  0.1250000000000000  0.1034790374483450   F   F   F
  0.2498859634498327  0.1249446583025119  0.2084296351173645   F   F   F
  0.0000000000000000  0.3750000000000000  0.1034790374483450   F   F   F
  0.0000000000000000  0.1250000000000000  0.1034790374483450   F   F   F
  0.7500000000000000  0.1250000000000000  0.1034790374483450   F   F   F
  0.7500000113728454  0.3746434304486337  0.2086345460683278   T   T   T
 -0.0003291473946509  0.1255776928697899  0.2087704753568825   T   T   T
  0.7460906107336670  0.1247519509459410  0.3149986944218842   T   T   T
 -0.0063420729631139  0.6255920351904303  0.3143919388835841   T   T   T
  0.8721413672368521  0.0003051526180790  0.3135254017669903   T   T   T
  0.7489176362582495  0.2497937707205303  0.2622660910690703   T   T   T
  0.7496111916670422  0.7495882814248512  0.2623383353124121   T   T   T
  0.8710205865155241  0.4984435594407263  0.3140412710382960   T   T   T
  0.7500001417602953  0.7499994873041090  0.1560720019688409   F   F   F
  0.8750002628252658  0.9999999076726724  0.2083511414037477   F   F   F
  0.7499999492943173  0.2499998973890912  0.1560719005187454   F   F   F
  0.0000000305378639  0.2499999899091724  0.1560719922121782   F   F   F
  0.1250000490227787  0.9999999537391714  0.2083512510515163   F   F   F
  0.1222970494864660  0.9988812747885144  0.3106082834718165   T   T   T
  0.0000000000000000  0.2500000000000000  0.0512814666029016   F   F   F
  0.4865534581847920  0.7476430696810774  0.3706177142651334   T   T   T
  0.9971984858300599  0.2498189761136171  0.2621638194380164   T   T   T
  0.8750003526753075  0.4999998740212845  0.2083512073452132   F   F   F
  0.7500000000000000  0.7500000000000000  0.0512814666029016   F   F   F
  0.8750000000000000  0.5000000000000000  0.1034790374483450   F   F   F
  1.0400879349426106  0.2505337953869294  0.3678465772908269   T   T   T
  0.3721404791700642  1.0002120039664915  0.3101186531107027   T   T   T
  0.6250000282706359  0.5000001736904404  0.2083512799526737   F   F   F
  0.6228621022229928  0.5000596124948949  0.3128472482781178   T   T   T
  0.3750000000000000  0.0000000000000000  0.1034790374483450   F   F   F
  0.8750000000000000  0.0000000000000000  0.1034790374483450   F   F   F
  0.7032507803577980  0.2501151319935672  0.3683248436717367   T   T   T
  0.1250000000000000  0.5000000000000000  0.1034790374483450   F   F   F
  0.5011115740252896  0.2478699458806193  0.2619806683283818   T   T   T
  0.7137401462072466  0.7496993420585377  0.3689883937865574   T   T   T
  0.2500001174677877  0.2500001432992012  0.1560720953180006   F   F   F
  0.5000000000000000  0.2500000000000000  0.0512814666029016   F   F   F
  0.2500000128051262  0.7499998164578953  0.1560720125206892   F   F   F
  0.2631911600393392  0.2783630232397637  0.3706611683303095   T   T   T
  0.2461647718949388  0.2479811118565488  0.2614686847757520   T   T   T
  0.2500000000000000  0.2500000000000000  0.0512814666029016   F   F   F
  0.3750000000000000  0.5000000000000000  0.1034790374483450   F   F   F
  0.3749999192595975  0.4999999237622314  0.2083514410374566   F   F   F
  0.6250000000000000  0.0000000000000000  0.1034790374483450   F   F   F
  0.2500000000000000  0.7500000000000000  0.0512814666029016   F   F   F
  0.4987216499380452  0.7496591270677411  0.2617652490174588   T   T   T
  0.6250001596235294  0.9999998419141339  0.2083511880761280   F   F   F
  0.4999999644933695  0.7499995734433390  0.1560719522146622   F   F   F
  0.1250000000000000  0.0000000000000000  0.1034790374483450   F   F   F
  0.1250001864597102  0.4999997469804928  0.2083513416983053   F   F   F
  0.5000000000000000  0.7500000000000000  0.0512814666029016   F   F   F
 -0.0041230275395121  0.7502632530016741  0.2623426435060639   T   T   T
  0.4725377473326126  0.2792305254826051  0.3731092589245990   T   T   T
  0.1194510689142018  0.5021985645762191  0.3112540912011271   T   T   T
  0.6219231425563744 -0.0002867708531422  0.3119428177471446   T   T   T
  1.0407889186688293  0.7440454460551180  0.3715550018425899   T   T   T
  0.5000000770400611  0.2499999680531972  0.1560718497316933   F   F   F
  0.2490857430084894  0.7498637976926035  0.2616656703495556   T   T   T
  0.0000002340500750  0.7499998236723172  0.1560719263822670   F   F   F
  0.3713431074305888  0.4987344109190712  0.3104057965145852   T   T   T
  0.7500000000000000  0.2500000000000000  0.0512814666029016   F   F   F
  0.2595263548516419  0.7478345557077032  0.3747518168268465   T   T   T
  0.0000000000000000  0.7500000000000000  0.0512814666029016   F   F   F
  0.6250000000000000  0.5000000000000000  0.1034790374483450   F   F   F
  0.3749999766530777  0.0000000103848568  0.2083513401927624   F   F   F
Cartesian
  0.0000000000000000  0.0000000000000000  0.0000000000000000
  0.0000000000000000  0.0000000000000000  0.0000000000000000
  0.0000000000000000  0.0000000000000000  0.0000000000000000
  0.0000000000000000  0.0000000000000000  0.0000000000000000
  0.0000000000000000  0.0000000000000000  0.0000000000000000
  0.0000000000000000  0.0000000000000000  0.0000000000000000
  0.0000000000000000  0.0000000000000000  0.0000000000000000
  0.0000000000000000  0.0000000000000000  0.0000000000000000
  0.0000000000000000  0.0000000000000000  0.0000000000000000
  0.0000000000000000  0.0000000000000000  0.0000000000000000
  0.0000000000000000  0.0000000000000000  0.0000000000000000
  0.0000000000000000  0.0000000000000000  0.0000000000000000
  0.0000000000000000  0.0000000000000000  0.0000000000000000
  0.0000000000000000  0.0000000000000000  0.0000000000000000
  0.0000000000000000  0.0000000000000000  0.0000000000000000
  0.0000000000000000  0.0000000000000000  0.0000000000000000
  0.0000000000000000  0.0000000000000000  0.0000000000000000
  0.0000000000000000  0.0000000000000000  0.0000000000000000
  0.0000000000000000  0.0000000000000000  0.0000000000000000
  0.0000000000000000  0.0000000000000000  0.0000000000000000
  0.0000000000000000  0.0000000000000000  0.0000000000000000
  0.0000000000000000  0.0000000000000000  0.0000000000000000
  0.0000000000000000  0.0000000000000000  0.0000000000000000
  0.0000000000000000  0.0000000000000000  0.0000000000000000
  0.0000000000000000  0.0000000000000000  0.0000000000000000
  0.0000000000000000  0.0000000000000000  0.0000000000000000
  0.0000000000000000  0.0000000000000000  0.0000000000000000
  0.0000000000000000  0.0000000000000000  0.0000000000000000
  0.0000000000000000  0.0000000000000000  0.0000000000000000
  0.0000000000000000  0.0000000000000000  0.0000000000000000
  0.0000000000000000  0.0000000000000000  0.0000000000000000
  0.0000000000000000  0.0000000000000000  0.0000000000000000
  0.0000000000000000  0.0000000000000000  0.0000000000000000
  0.0000000000000000  0.0000000000000000  0.0000000000000000
  0.0000000000000000  0.0000000000000000  0.0000000000000000
  0.0000000000000000  0.0000000000000000  0.0000000000000000
  0.0000000000000000  0.0000000000000000  0.0000000000000000
  0.0000000000000000  0.0000000000000000  0.0000000000000000
  0.0000000000000000  0.0000000000000000  0.0000000000000000
  0.0000000000000000  0.0000000000000000  0.0000000000000000
  0.0000000000000000  0.0000000000000000  0.0000000000000000
  0.0000000000000000  0.0000000000000000  0.0000000000000000
  0.0000000000000000  0.0000000000000000  0.0000000000000000
  0.0000000000000000  0.0000000000000000  0.0000000000000000
  0.0000000000000000  0.0000000000000000  0.0000000000000000
  0.0000000000000000  0.0000000000000000  0.0000000000000000
  0.0000000000000000  0.0000000000000000  0.0000000000000000
  0.0000000000000000  0.0000000000000000  0.0000000000000000
  0.0000000000000000  0.0000000000000000  0.0000000000000000
  0.0000000000000000  0.0000000000000000  0.0000000000000000
  0.0000000000000000  0.0000000000000000  0.0000000000000000
  0.0000000000000000  0.0000000000000000  0.0000000000000000
  0.0000000000000000  0.0000000000000000  0.0000000000000000
  0.0000000000000000  0.0000000000000000  0.0000000000000000
  0.0000000000000000  0.0000000000000000  0.0000000000000000
  0.0000000000000000  0.0000000000000000  0.0000000000000000
  0.0000000000000000  0.0000000000000000  0.0000000000000000
  0.0000000000000000  0.0000000000000000  0.0000000000000000
  0.0000000000000000  0.0000000000000000  0.0000000000000000
  0.0000000000000000  0.0000000000000000  0.0000000000000000
  0.0000000000000000  0.0000000000000000  0.0000000000000000
  0.0000000000000000  0.0000000000000000  0.0000000000000000
  0.0000000000000000  0.0000000000000000  0.0000000000000000
  0.0000000000000000  0.0000000000000000  0.0000000000000000
  0.0000000000000000  0.0000000000000000  0.0000000000000000
  0.0000000000000000  0.0000000000000000  0.0000000000000000
  0.0000000000000000  0.0000000000000000  0.0000000000000000
  0.0000000000000000  0.0000000000000000  0.0000000000000000
  0.0000000000000000  0.0000000000000000  0.0000000000000000
  0.0000000000000000  0.0000000000000000  0.0000000000000000
  0.0000000000000000  0.0000000000000000  0.0000000000000000
  0.0000000000000000  0.0000000000000000  0.0000000000000000
  0.0000000000000000  0.0000000000000000  0.0000000000000000
  0.0000000000000000  0.0000000000000000  0.0000000000000000
  0.0000000000000000  0.0000000000000000  0.0000000000000000
  0.0000000000000000  0.0000000000000000  0.0000000000000000
  0.0000000000000000  0.0000000000000000  0.0000000000000000
  0.0000000000000000  0.0000000000000000  0.0000000000000000
  0.0000000000000000  0.0000000000000000  0.0000000000000000
  0.0000000000000000  0.0000000000000000  0.0000000000000000
  0.0000000000000000  0.0000000000000000  0.0000000000000000
  0.0000000000000000  0.0000000000000000  0.0000000000000000
  0.0000000000000000  0.0000000000000000  0.0000000000000000
  0.0000000000000000  0.0000000000000000  0.0000000000000000
  0.0000000000000000  0.0000000000000000  0.0000000000000000
  0.0000000000000000  0.0000000000000000  0.0000000000000000
  0.0000000000000000  0.0000000000000000  0.0000000000000000
  0.0000000000000000  0.0000000000000000  0.0000000000000000
  0.0000000000000000  0.0000000000000000  0.0000000000000000
  0.0000000000000000  0.0000000000000000  0.0000000000000000
  0.0000000000000000  0.0000000000000000  0.0000000000000000
  0.0000000000000000  0.0000000000000000  0.0000000000000000
  0.0000000000000000  0.0000000000000000  0.0000000000000000
  0.0000000000000000  0.0000000000000000  0.0000000000000000
  0.0000000000000000  0.0000000000000000  0.0000000000000000
  0.0000000000000000  0.0000000000000000  0.0000000000000000
  0.0000000000000000  0.0000000000000000  0.0000000000000000
  0.0000000000000000  0.0000000000000000  0.0000000000000000
  0.0000000000000000  0.0000000000000000  0.0000000000000000
  0.0000000000000000  0.0000000000000000  0.0000000000000000
  0.0000000000000000  0.0000000000000000  0.0000000000000000
  0.0000000000000000  0.0000000000000000  0.0000000000000000
  0.0000000000000000  0.0000000000000000  0.0000000000000000
  0.0000000000000000  0.0000000000000000  0.0000000000000000
  0.0000000000000000  0.0000000000000000  0.0000000000000000
  0.0000000000000000  0.0000000000000000  0.0000000000000000
  0.0000000000000000  0.0000000000000000  0.0000000000000000
  0.0000000000000000  0.0000000000000000  0.0000000000000000
  0.0000000000000000  0.0000000000000000  0.0000000000000000
  0.0000000000000000  0.0000000000000000  0.0000000000000000
  0.0000000000000000  0.0000000000000000  0.0000000000000000
