C  H  O  Pd
 1.0000000000000000
    11.0046904376558210    0.0000000000000000    0.0000000000000000
     0.0000000000000000   11.0046904376558210    0.0000000000000000
     0.0000000000000000    0.0000000000000000   27.7814912333251840
 C   H   O   Pd 
   1   3   1  80
Selective dynamics
Direct
  0.6534605804072028  0.8530820590474355  0.4304139795719274   T   T   T
  0.5569794908416564  0.8329463121100951  0.4196087120571572   T   T   T
  0.6727393808008836  0.9483446336471375  0.4173612958665234   T   T   T
  0.6588208393942456  0.8536848854500113  0.4703089177114849   T   T   T
  0.7367198891839278  0.7669500214187397  0.4133737786517022   T   T   T
  0.0000000000000000  0.7500000000000000  0.0539927820073487   F   F   F
  0.8750000000000000  0.1250000000000000  0.1240168419828507   F   F   F
  0.6250000000000001  0.1250000000000000  0.1240168419828507   F   F   F
  0.0000000000000000  0.5000000000000000  0.0539927820073487   F   F   F
  0.2500000000000000  0.0000000000000000  0.0539927820073487   F   F   F
  0.5000000000000000  0.0000000000000000  0.0539927820073487   F   F   F
  0.7500000000000000  0.0000000000000000  0.0539927820073487   F   F   F
  0.2500000000000000  0.7500000000000000  0.0539927820073487   F   F   F
  0.0000000000000000  0.2500000000000000  0.0539927820073487   F   F   F
  0.5000000000000000  0.2500000000000000  0.0539927820073487   F   F   F
  0.7500000000000000  0.2500000000000000  0.0539927820073487   F   F   F
  0.2500000000000000  0.5000000000000000  0.0539927820073487   F   F   F
  0.3750000000000000  0.1250000000000000  0.1240168419828507   F   F   F
  0.5000000000000000  0.5000000000000000  0.0539927820073487   F   F   F
  0.7500000000000000  0.5000000000000000  0.0539927820073487   F   F   F
  0.1250000000000000  0.3750000000000000  0.1240168419828507   F   F   F
  0.2500000000000000  0.2500000000000000  0.0539927820073487   F   F   F
  0.2498772389365542  0.2501172817555227  0.1953498660348832   F   F   F
  0.5000000000000000  0.7500000000000000  0.0539927820073487   F   F   F
  0.7526678059646258  0.7475512868489683  0.3427028088355317   T   T   T
  0.4998176204506720  0.7496961046882882  0.3388844628170149   T   T   T
  0.3750000000000000  0.3750000000000000  0.1240168419828507   F   F   F
  0.6250000000000001  0.3750000000000000  0.1240168419828507   F   F   F
  0.8750000000000000  0.3750000000000000  0.1240168419828507   F   F   F
  0.1250000000000000  0.6250000000000001  0.1240168419828507   F   F   F
  0.3750000000000000  0.6250000000000001  0.1240168419828507   F   F   F
 -0.0002112262500945  0.2498606182591706  0.1954280335881271   F   F   F
  0.6250000000000001  0.6250000000000001  0.1240168419828507   F   F   F
  0.1250000000000000  0.8750000000000000  0.1240168419828507   F   F   F
  0.3750000000000000  0.8750000000000000  0.1240168419828507   F   F   F
  0.6250000000000001  0.8750000000000000  0.1240168419828507   F   F   F
  0.8750000000000000  0.8750000000000000  0.1240168419828507   F   F   F
 -0.0001096745212987 -0.0003839263251169  0.1954358907654475   T   T   T
  0.2499815451903326 -0.0000926432992318  0.1952977868122109   F   F   F
  0.5002451052466318 -0.0001873670089051  0.1954481670150877   T   T   T
  0.8750000000000000  0.6250000000000001  0.1240168419828507   F   F   F
  0.7502341065830415 -0.0007657310935711  0.1955948944913605   T   T   T
  0.0000000000000000  0.0000000000000000  0.0539927820073487   F   F   F
  0.5001038637148271  0.2500725339586383  0.1952957125580674   F   F   F
  0.3745629056603520  0.1254536938582473  0.2666489871908880   T   T   T
  0.5005201778490544  0.5001557924973624  0.1954315419296874   F   F   F
  0.7505474532164659  0.5003730693256248  0.1956478376795567   T   T   T
 -0.0001865570004959  0.7495573761739160  0.1956520122637393   T   T   T
  0.2504381814044567  0.7498659718107026  0.1953922494003965   F   F   F
  0.5009404851871170  0.7497826184113294  0.1956081149360886   T   T   T
  0.7505382254229144  0.7496696477607735  0.1956112133428006   T   T   T
  0.1247900285856570  0.1249633137047315  0.2667811430266101   T   T   T
  0.6251691238886435  0.1248457738125442  0.2667774959777601   T   T   T
  0.6271080255177770  0.6254763075837343  0.2677031772535028   T   T   T
  0.8748649121857484  0.1240552661245420  0.2670343542054877   T   T   T
  0.1253275688796295  0.3747248807708669  0.2668418342427222   T   T   T
  0.3751156277967170  0.3751682895784371  0.2667728920711627   T   T   T
  0.6253958925153562  0.3750404136140446  0.2667687021349569   T   T   T
  0.8752126552952130  0.3748718752845259  0.2668897305996181   T   T   T
  0.1253873673915593  0.6248542149614308  0.2668841177373550   T   T   T
  0.3762599094582257  0.6250620649937925  0.2670134396000240   T   T   T
  0.2502119056825596  0.5001841663317151  0.1954266238504409   F   F   F
  0.8744228847480426  0.6258474039957614  0.2681451880837776   T   T   T
  0.3753590178446984  0.8748286803566958  0.2667593991054608   T   T   T
  0.2515703901009403  0.7501193219156169  0.3386227717450515   T   T   T
  0.7501339539576338  0.2497168677829378  0.1953938592076052   F   F   F
  0.0000747913139230  0.5000162905707706  0.1955535035014028   T   T   T
  0.2497235013533800  0.2502973060454767  0.3385903090867121   T   T   T
  0.6263366475558871  0.8739043893454164  0.2673900429485957   T   T   T
  0.8747339962317708  0.8732563250485673  0.2676911091130197   T   T   T
  0.0007701999006269 -0.0001575593485761  0.3386519841030992   T   T   T
  0.2496774636668522  0.0003332463557114  0.3385347333285323   T   T   T
  0.4989743059715672  0.0009588466243140  0.3379459519763071   T   T   T
  0.1250000000000000  0.1250000000000000  0.1240168419828507   F   F   F
  0.7503355975799253  0.0008015257101698  0.3389466447816221   T   T   T
  0.4996533755152134  0.2503340987578113  0.3385534775703522   T   T   T
  0.1251354319061937  0.8746930259026968  0.2667679969218325   T   T   T
  0.7498918262501066  0.2489733942749967  0.3386512006443385   T   T   T
  0.0013597747019918  0.4988253436395703  0.3387281098705300   T   T   T
  0.2507059595143556  0.5001690694210565  0.3386830669573930   T   T   T
  0.5004368777732349  0.4992765776310068  0.3386570583976747   T   T   T
  0.7507466962853124  0.4963274179607723  0.3390507761491414   T   T   T
  0.0040579648158856  0.7494564264957683  0.3390252150157331   T   T   T
 -0.0001766912998818  0.2494939455107293  0.3387110801867302   T   T   T
  0.7500000000000000  0.7500000000000000  0.0539927820073487   F   F   F
Cartesian
  0.0000000000000000  0.0000000000000000  0.0000000000000000
  0.0000000000000000  0.0000000000000000  0.0000000000000000
  0.0000000000000000  0.0000000000000000  0.0000000000000000
  0.0000000000000000  0.0000000000000000  0.0000000000000000
  0.0000000000000000  0.0000000000000000  0.0000000000000000
  0.0000000000000000  0.0000000000000000  0.0000000000000000
  0.0000000000000000  0.0000000000000000  0.0000000000000000
  0.0000000000000000  0.0000000000000000  0.0000000000000000
  0.0000000000000000  0.0000000000000000  0.0000000000000000
  0.0000000000000000  0.0000000000000000  0.0000000000000000
  0.0000000000000000  0.0000000000000000  0.0000000000000000
  0.0000000000000000  0.0000000000000000  0.0000000000000000
  0.0000000000000000  0.0000000000000000  0.0000000000000000
  0.0000000000000000  0.0000000000000000  0.0000000000000000
  0.0000000000000000  0.0000000000000000  0.0000000000000000
  0.0000000000000000  0.0000000000000000  0.0000000000000000
  0.0000000000000000  0.0000000000000000  0.0000000000000000
  0.0000000000000000  0.0000000000000000  0.0000000000000000
  0.0000000000000000  0.0000000000000000  0.0000000000000000
  0.0000000000000000  0.0000000000000000  0.0000000000000000
  0.0000000000000000  0.0000000000000000  0.0000000000000000
  0.0000000000000000  0.0000000000000000  0.0000000000000000
  0.0000000000000000  0.0000000000000000  0.0000000000000000
  0.0000000000000000  0.0000000000000000  0.0000000000000000
  0.0000000000000000  0.0000000000000000  0.0000000000000000
  0.0000000000000000  0.0000000000000000  0.0000000000000000
  0.0000000000000000  0.0000000000000000  0.0000000000000000
  0.0000000000000000  0.0000000000000000  0.0000000000000000
  0.0000000000000000  0.0000000000000000  0.0000000000000000
  0.0000000000000000  0.0000000000000000  0.0000000000000000
  0.0000000000000000  0.0000000000000000  0.0000000000000000
  0.0000000000000000  0.0000000000000000  0.0000000000000000
  0.0000000000000000  0.0000000000000000  0.0000000000000000
  0.0000000000000000  0.0000000000000000  0.0000000000000000
  0.0000000000000000  0.0000000000000000  0.0000000000000000
  0.0000000000000000  0.0000000000000000  0.0000000000000000
  0.0000000000000000  0.0000000000000000  0.0000000000000000
  0.0000000000000000  0.0000000000000000  0.0000000000000000
  0.0000000000000000  0.0000000000000000  0.0000000000000000
  0.0000000000000000  0.0000000000000000  0.0000000000000000
  0.0000000000000000  0.0000000000000000  0.0000000000000000
  0.0000000000000000  0.0000000000000000  0.0000000000000000
  0.0000000000000000  0.0000000000000000  0.0000000000000000
  0.0000000000000000  0.0000000000000000  0.0000000000000000
  0.0000000000000000  0.0000000000000000  0.0000000000000000
  0.0000000000000000  0.0000000000000000  0.0000000000000000
  0.0000000000000000  0.0000000000000000  0.0000000000000000
  0.0000000000000000  0.0000000000000000  0.0000000000000000
  0.0000000000000000  0.0000000000000000  0.0000000000000000
  0.0000000000000000  0.0000000000000000  0.0000000000000000
  0.0000000000000000  0.0000000000000000  0.0000000000000000
  0.0000000000000000  0.0000000000000000  0.0000000000000000
  0.0000000000000000  0.0000000000000000  0.0000000000000000
  0.0000000000000000  0.0000000000000000  0.0000000000000000
  0.0000000000000000  0.0000000000000000  0.0000000000000000
  0.0000000000000000  0.0000000000000000  0.0000000000000000
  0.0000000000000000  0.0000000000000000  0.0000000000000000
  0.0000000000000000  0.0000000000000000  0.0000000000000000
  0.0000000000000000  0.0000000000000000  0.0000000000000000
  0.0000000000000000  0.0000000000000000  0.0000000000000000
  0.0000000000000000  0.0000000000000000  0.0000000000000000
  0.0000000000000000  0.0000000000000000  0.0000000000000000
  0.0000000000000000  0.0000000000000000  0.0000000000000000
  0.0000000000000000  0.0000000000000000  0.0000000000000000
  0.0000000000000000  0.0000000000000000  0.0000000000000000
  0.0000000000000000  0.0000000000000000  0.0000000000000000
  0.0000000000000000  0.0000000000000000  0.0000000000000000
  0.0000000000000000  0.0000000000000000  0.0000000000000000
  0.0000000000000000  0.0000000000000000  0.0000000000000000
  0.0000000000000000  0.0000000000000000  0.0000000000000000
  0.0000000000000000  0.0000000000000000  0.0000000000000000
  0.0000000000000000  0.0000000000000000  0.0000000000000000
  0.0000000000000000  0.0000000000000000  0.0000000000000000
  0.0000000000000000  0.0000000000000000  0.0000000000000000
  0.0000000000000000  0.0000000000000000  0.0000000000000000
  0.0000000000000000  0.0000000000000000  0.0000000000000000
  0.0000000000000000  0.0000000000000000  0.0000000000000000
  0.0000000000000000  0.0000000000000000  0.0000000000000000
  0.0000000000000000  0.0000000000000000  0.0000000000000000
  0.0000000000000000  0.0000000000000000  0.0000000000000000
  0.0000000000000000  0.0000000000000000  0.0000000000000000
  0.0000000000000000  0.0000000000000000  0.0000000000000000
  0.0000000000000000  0.0000000000000000  0.0000000000000000
  0.0000000000000000  0.0000000000000000  0.0000000000000000
  0.0000000000000000  0.0000000000000000  0.0000000000000000
