C  O  Pd
 1.0000000000000000
    11.0046904376558210    0.0000000000000000    0.0000000000000000
     0.0000000000000000   11.0046904376558210    0.0000000000000000
     0.0000000000000000    0.0000000000000000   27.7814912333251840
 C   O   Pd 
   1   1  80
Selective dynamics
Direct
  0.1275382339944912  0.7599272265545121  0.3921173491371567   T   T   T
  0.1273882812669090  0.7677184077193155  0.4347760463638708   T   T   T
  0.5019306982699233  0.7496565539733654  0.3390591883777874   T   T   T
  0.0000000000000000  0.5000000000000000  0.0539927820073487   F   F   F
  0.2500000000000000  0.0000000000000000  0.0539927820073487   F   F   F
  0.5000000000000000  0.0000000000000000  0.0539927820073487   F   F   F
  0.7500000000000000  0.0000000000000000  0.0539927820073487   F   F   F
  0.0000000000000000  0.2500000000000000  0.0539927820073487   F   F   F
  0.2500000000000000  0.2500000000000000  0.0539927820073487   F   F   F
  0.5000000000000000  0.2500000000000000  0.0539927820073487   F   F   F
  0.6250000000000001  0.1250000000000000  0.1240168419828507   F   F   F
  0.7500000000000000  0.2500000000000000  0.0539927820073487   F   F   F
  0.3750000000000000  0.1250000000000000  0.1240168419828507   F   F   F
  0.5000000000000000  0.5000000000000000  0.0539927820073487   F   F   F
  0.7500000000000000  0.5000000000000000  0.0539927820073487   F   F   F
  0.0000000000000000  0.7500000000000000  0.0539927820073487   F   F   F
  0.2500000000000000  0.7500000000000000  0.0539927820073487   F   F   F
  0.5000000000000000  0.7500000000000000  0.0539927820073487   F   F   F
  0.7500000000000000  0.7500000000000000  0.0539927820073487   F   F   F
  0.2500000000000000  0.5000000000000000  0.0539927820073487   F   F   F
  0.7518826985250174  0.7497701545548056  0.3388792943768305   T   T   T
  0.8750000000000000  0.1250000000000000  0.1240168419828507   F   F   F
  0.2506805669539645  0.2500991192750752  0.1954277941776860   F   F   F
  0.3750000000000000  0.3750000000000000  0.1240168419828507   F   F   F
  0.6250000000000001  0.3750000000000000  0.1240168419828507   F   F   F
  0.8750000000000000  0.3750000000000000  0.1240168419828507   F   F   F
  0.1250000000000000  0.6250000000000001  0.1240168419828507   F   F   F
  0.3750000000000000  0.6250000000000001  0.1240168419828507   F   F   F
  0.6250000000000001  0.6250000000000001  0.1240168419828507   F   F   F
  0.8750000000000000  0.6250000000000001  0.1240168419828507   F   F   F
  0.1250000000000000  0.1250000000000000  0.1240168419828507   F   F   F
  0.1250000000000000  0.8750000000000000  0.1240168419828507   F   F   F
  0.6250000000000001  0.8750000000000000  0.1240168419828507   F   F   F
  0.8750000000000000  0.8750000000000000  0.1240168419828507   F   F   F
  0.0004332651765352 -0.0001996461429696  0.1954487652106108   T   T   T
  0.2509310142915372 -0.0001359721950804  0.1954287317514050   F   F   F
  0.5007882240187779 -0.0001303797398523  0.1954147574005945   F   F   F
  0.7504507685393834 -0.0000299981573300  0.1954375175530817   F   F   F
  0.0002982930136439  0.2500504473124663  0.1954353029875135   F   F   F
  0.3750000000000000  0.8750000000000000  0.1240168419828507   F   F   F
  0.1250000000000000  0.3750000000000000  0.1240168419828507   F   F   F
  0.0000000000000000  0.0000000000000000  0.0539927820073487   F   F   F
  0.0003850933962304  0.5003331867304476  0.1954256819843931   F   F   F
  0.5008996390218059  0.4997963383083083  0.1954216975514672   F   F   F
  0.7503983599944156  0.4997893194867679  0.1954414561015451   T   T   T
  0.0007521804675273  0.7499847695091342  0.1955635247999666   T   T   T
  0.2505030674626437  0.7501127444940029  0.1955426392700590   T   T   T
  0.5003741519426694  0.7498006558707994  0.1956131847861150   T   T   T
  0.7508900847398162  0.7498652399243283  0.1956458564750425   T   T   T
  0.1260820649487910  0.1251887969275295  0.2666778426440975   T   T   T
  0.3761741515113702  0.1246500217412219  0.2668851422154430   T   T   T
  0.6260982248928462  0.1248646020610043  0.2670795660912112   T   T   T
  0.8756969201654091  0.1246554334150054  0.2669777834670470   T   T   T
  0.1261307167382410  0.3752741882195532  0.2666543565378244   T   T   T
  0.3761810624350456  0.3751891517896509  0.2669095184764312   T   T   T
  0.6261200468880428  0.3745928146292844  0.2671164364719655   T   T   T
  0.8756894125779263  0.3751258070926285  0.2669835042354768   T   T   T
  0.1263989981594257  0.6251931421898771  0.2671795208656659   T   T   T
  0.3758964700454077  0.6255936789987517  0.2675360061128603   T   T   T
  0.6261702234428590  0.6248057274250080  0.2671564234337552   T   T   T
  0.2510386495260740  0.5003583822354272  0.1953791945897308   F   F   F
  0.8771878075538825  0.6254709988638076  0.2675469854141415   T   T   T
  0.3760047840498042  0.8743197560138115  0.2674481205972226   T   T   T
  0.2508741386010370  0.2502608719693101  0.3385836535652186   T   T   T
  0.6260908545957395  0.8745675526618669  0.2671016072284759   T   T   T
  0.8770079116100875  0.8742907076936254  0.2674545180176324   T   T   T
  0.0018010599401419  0.0022245995582276  0.3385418202278327   T   T   T
  0.2518545252125856  0.0026201781623350  0.3386561167032727   T   T   T
  0.5019921682454007 -0.0002008073921451  0.3389034870707009   T   T   T
  0.7516275257938768 -0.0002294005679068  0.3388557323074800   T   T   T
  0.0006700551431028  0.2499066271740401  0.3386390384329808   T   T   T
  0.5005241457103238  0.2495254647890580  0.3388179997409563   T   T   T
  0.1264002032905346  0.8750136560040437  0.2671627891051274   T   T   T
  0.7509691588602003  0.2497077900810615  0.3389861940433743   T   T   T
  0.0019294393718787  0.4977955366993524  0.3385086451840754   T   T   T
  0.2518602426111545  0.4980078191514220  0.3386283300702335   T   T   T
  0.5020195866552313  0.4994297550692338  0.3389383793836576   T   T   T
  0.7517300821557240  0.4996083433214420  0.3389738883787181   T   T   T
  0.0001849132779265  0.7500855589031092  0.3421585927770093   T   T   T
  0.2537923112578160  0.7504836850325706  0.3420228397386309   T   T   T
  0.7503768954560726  0.2499167916746686  0.1955589200560278   T   T   T
  0.5004452803024954  0.2498380261924916  0.1955728316135948   T   T   T
Cartesian
  0.0000000000000000  0.0000000000000000  0.0000000000000000
  0.0000000000000000  0.0000000000000000  0.0000000000000000
  0.0000000000000000  0.0000000000000000  0.0000000000000000
  0.0000000000000000  0.0000000000000000  0.0000000000000000
  0.0000000000000000  0.0000000000000000  0.0000000000000000
  0.0000000000000000  0.0000000000000000  0.0000000000000000
  0.0000000000000000  0.0000000000000000  0.0000000000000000
  0.0000000000000000  0.0000000000000000  0.0000000000000000
  0.0000000000000000  0.0000000000000000  0.0000000000000000
  0.0000000000000000  0.0000000000000000  0.0000000000000000
  0.0000000000000000  0.0000000000000000  0.0000000000000000
  0.0000000000000000  0.0000000000000000  0.0000000000000000
  0.0000000000000000  0.0000000000000000  0.0000000000000000
  0.0000000000000000  0.0000000000000000  0.0000000000000000
  0.0000000000000000  0.0000000000000000  0.0000000000000000
  0.0000000000000000  0.0000000000000000  0.0000000000000000
  0.0000000000000000  0.0000000000000000  0.0000000000000000
  0.0000000000000000  0.0000000000000000  0.0000000000000000
  0.0000000000000000  0.0000000000000000  0.0000000000000000
  0.0000000000000000  0.0000000000000000  0.0000000000000000
  0.0000000000000000  0.0000000000000000  0.0000000000000000
  0.0000000000000000  0.0000000000000000  0.0000000000000000
  0.0000000000000000  0.0000000000000000  0.0000000000000000
  0.0000000000000000  0.0000000000000000  0.0000000000000000
  0.0000000000000000  0.0000000000000000  0.0000000000000000
  0.0000000000000000  0.0000000000000000  0.0000000000000000
  0.0000000000000000  0.0000000000000000  0.0000000000000000
  0.0000000000000000  0.0000000000000000  0.0000000000000000
  0.0000000000000000  0.0000000000000000  0.0000000000000000
  0.0000000000000000  0.0000000000000000  0.0000000000000000
  0.0000000000000000  0.0000000000000000  0.0000000000000000
  0.0000000000000000  0.0000000000000000  0.0000000000000000
  0.0000000000000000  0.0000000000000000  0.0000000000000000
  0.0000000000000000  0.0000000000000000  0.0000000000000000
  0.0000000000000000  0.0000000000000000  0.0000000000000000
  0.0000000000000000  0.0000000000000000  0.0000000000000000
  0.0000000000000000  0.0000000000000000  0.0000000000000000
  0.0000000000000000  0.0000000000000000  0.0000000000000000
  0.0000000000000000  0.0000000000000000  0.0000000000000000
  0.0000000000000000  0.0000000000000000  0.0000000000000000
  0.0000000000000000  0.0000000000000000  0.0000000000000000
  0.0000000000000000  0.0000000000000000  0.0000000000000000
  0.0000000000000000  0.0000000000000000  0.0000000000000000
  0.0000000000000000  0.0000000000000000  0.0000000000000000
  0.0000000000000000  0.0000000000000000  0.0000000000000000
  0.0000000000000000  0.0000000000000000  0.0000000000000000
  0.0000000000000000  0.0000000000000000  0.0000000000000000
  0.0000000000000000  0.0000000000000000  0.0000000000000000
  0.0000000000000000  0.0000000000000000  0.0000000000000000
  0.0000000000000000  0.0000000000000000  0.0000000000000000
  0.0000000000000000  0.0000000000000000  0.0000000000000000
  0.0000000000000000  0.0000000000000000  0.0000000000000000
  0.0000000000000000  0.0000000000000000  0.0000000000000000
  0.0000000000000000  0.0000000000000000  0.0000000000000000
  0.0000000000000000  0.0000000000000000  0.0000000000000000
  0.0000000000000000  0.0000000000000000  0.0000000000000000
  0.0000000000000000  0.0000000000000000  0.0000000000000000
  0.0000000000000000  0.0000000000000000  0.0000000000000000
  0.0000000000000000  0.0000000000000000  0.0000000000000000
  0.0000000000000000  0.0000000000000000  0.0000000000000000
  0.0000000000000000  0.0000000000000000  0.0000000000000000
  0.0000000000000000  0.0000000000000000  0.0000000000000000
  0.0000000000000000  0.0000000000000000  0.0000000000000000
  0.0000000000000000  0.0000000000000000  0.0000000000000000
  0.0000000000000000  0.0000000000000000  0.0000000000000000
  0.0000000000000000  0.0000000000000000  0.0000000000000000
  0.0000000000000000  0.0000000000000000  0.0000000000000000
  0.0000000000000000  0.0000000000000000  0.0000000000000000
  0.0000000000000000  0.0000000000000000  0.0000000000000000
  0.0000000000000000  0.0000000000000000  0.0000000000000000
  0.0000000000000000  0.0000000000000000  0.0000000000000000
  0.0000000000000000  0.0000000000000000  0.0000000000000000
  0.0000000000000000  0.0000000000000000  0.0000000000000000
  0.0000000000000000  0.0000000000000000  0.0000000000000000
  0.0000000000000000  0.0000000000000000  0.0000000000000000
  0.0000000000000000  0.0000000000000000  0.0000000000000000
  0.0000000000000000  0.0000000000000000  0.0000000000000000
  0.0000000000000000  0.0000000000000000  0.0000000000000000
  0.0000000000000000  0.0000000000000000  0.0000000000000000
  0.0000000000000000  0.0000000000000000  0.0000000000000000
  0.0000000000000000  0.0000000000000000  0.0000000000000000
  0.0000000000000000  0.0000000000000000  0.0000000000000000
