C  H  O  Pd
 1.0000000000000000
    12.3034736924171124    0.0000000000000000    0.0000000000000000
     0.0000000000000000   12.3034736924171142    0.0000000000000000
     0.0000000000000000    0.0000000000000000   29.1654207465942434
 C   H   O   Pd 
   2   3  18  96
Selective dynamics
Direct
  0.0448479414010618  0.2884469757500462  0.4290828605938896   T   T   T
  0.3213286682880819  0.3110456344550467  0.3847200895764379   T   T   T
  0.0642960851122957  0.2012159404707368  0.4324501625751131   T   T   T
  0.1028979414124284  0.3367695147607169  0.4495336023289866   T   T   T
 -0.0382949869771931  0.3033870494460181  0.4419519456919004   T   T   T
  0.0522432735571539  0.3247900212561739  0.3823200608079002   T   T   T
  0.3242480795425640  0.3368635337937806  0.4235759575798372   T   T   T
  0.6834625365503262  0.1365737678762543  0.3622303886856922   T   T   T
  0.1840568911255171  0.6393668601256663  0.3612618586034086   T   T   T
  0.4382936838772407  0.1292466767237860  0.3655290261513860   T   T   T
  0.4349429097494178  0.4426730381445541  0.3207226489301369   T   T   T
  0.6861501230392834  0.9439645002969076  0.3197883530534587   T   T   T
  0.1866423396683681  0.1308401319482658  0.3651736523706900   T   T   T
  0.1882476964547685  0.4470138014451379  0.3201774126200856   T   T   T
  0.9366068468156422  0.6359481961230634  0.3621525271948061   T   T   T
  0.6863785669963663  0.4437327427698075  0.3214680804898897   T   T   T
  0.9313016157972626  0.4407853914189148  0.3200372012277248   T   T   T
  0.9335728709383803  0.1324909477164554  0.3639304616054601   T   T   T
  0.9335787206536134  0.9414718530112077  0.3209610833891832   T   T   T
  0.6855365739512036  0.6389968822217115  0.3621932203915154   T   T   T
  0.4334883367383369  0.9400233926882452  0.3205634222747490   T   T   T
  0.1860094706256576  0.9449903540715439  0.3203068037286864   T   T   T
  0.4384308194225091  0.6372073359566909  0.3626692283747504   T   T   T
  0.9001883753616559  0.9034700270296803  0.2535505676119655   T   T   T
  0.2507186327193073  0.8495738546420786  0.1862153290939836   T   T   T
  0.0596396581424081  0.0436135666584936  0.3402836830776609   T   T   T
  0.1507236091547503  0.1489864169829936  0.1853656493630883   F   F   F
  0.9500000000000028  0.2500000000000000  0.0514307684100572   F   F   F
  0.8500000000000014  0.0499999999999972  0.0514307684100572   F   F   F
  0.2999999999999972  0.2000000000000028  0.1181313319610595   F   F   F
  0.1499999999999986  0.1499999999999986  0.0514307684100572   F   F   F
  0.5611985392775971  0.5439575321175153  0.3405498230270629   T   T   T
  0.8485330413376032  0.0512636254534289  0.1852339871257567   F   F   F
  0.9965458060334487  0.1068635083627432  0.2530549308825128   T   T   T
  0.1000000000000014  0.2999999999999972  0.1181313319610595   F   F   F
  0.1953569160562672  0.2849305868050006  0.3418973058090380   T   T   T
  0.9486127127564162  0.2506768571014975  0.1843632683220324   F   F   F
  0.0971666368108497  0.2972970365328454  0.2535229952806551   T   T   T
  0.0499999999999972  0.4500000000000027  0.0514307684100572   F   F   F
  0.2000000000000028  0.5000000000000000  0.1181313319610595   F   F   F
  0.0491193131827514  0.4512444611448465  0.1844626448581111   F   F   F
  0.0000000000000000  0.1000000000000014  0.1181313319610595   F   F   F
  0.3122504845565219  0.5497159780520101  0.3391309257591929   T   T   T
  0.1507252829162628  0.6489864416498848  0.1853659281879895   F   F   F
  0.3485341556527256  0.0512641898857512  0.1852337169709379   F   F   F
  0.9369809990978355  0.7772574707748349  0.3318021636454679   T   T   T
  0.4001003385940325  0.9035264869571216  0.2531392053010352   T   T   T
  0.1865896271942632  0.7844093595404676  0.3346019002956352   T   T   T
  0.3117667127927627  0.0423309262544591  0.3410628273054900   T   T   T
  0.8111575232309911  0.5457365172157453  0.3402009517572296   T   T   T
  0.6863012188708073  0.2827495554897109  0.3359336732716181   T   T   T
  0.9320995140480542  0.2773860106253612  0.3353130195507501   T   T   T
  0.4383320962173340  0.7770410811784314  0.3315843125389106   T   T   T
  0.0600188064673180  0.5431382448963800  0.3399129177701983   T   T   T
  0.5000000000000000  0.1000000000000014  0.1181313319610595   F   F   F
  0.6883442259640499  0.7836050405733812  0.3347176143801300   T   T   T
  0.8102748543059046  0.0448267781428898  0.3398956812949425   T   T   T
  0.8999999999999986  0.8999999999999986  0.1181313319610595   F   F   F
  0.9008722218856982  0.4032050348773040  0.2534147186184305   T   T   T
  0.2508881159779632  0.3482574740828966  0.1864787090806313   T   T   T
  0.2500000000000000  0.3500000000000014  0.0514307684100572   F   F   F
  0.2500000000000000  0.8500000000000014  0.0514307684100572   F   F   F
  0.4368235243333616  0.2783254629993581  0.3381171469833953   T   T   T
  0.4500000000000028  0.2500000000000000  0.0514307684100572   F   F   F
  0.4951810037209914  0.1071451848105765  0.2532427083355514   T   T   T
  0.5598457346879181  0.0417082373780165  0.3396685104110603   T   T   T
  0.1958667627032627  0.4985611093666182  0.2533127570778110   T   T   T
  0.8999999999999986  0.3999999999999986  0.1181313319610595   F   F   F
  0.3500000000000014  0.5499999999999972  0.0514307684100572   F   F   F
  0.1499999999999986  0.6499999999999986  0.0514307684100572   F   F   F
  0.5957801247646678  0.7968978611587253  0.2520614004231003   T   T   T
  0.7500000000000000  0.8500000000000014  0.0514307684100572   F   F   F
  0.7979514909427065  0.7000897414810424  0.2575054402561692   T   T   T
  0.2999999999999972  0.7000000000000028  0.1181313319610595   F   F   F
  0.6000000000000014  0.2999999999999972  0.1181313319610595   F   F   F
  0.7999999999999972  0.7000000000000028  0.1181313319610595   F   F   F
  0.6949743414912524  0.0014766203934060  0.2534833502001729   T   T   T
  0.5491182374295687  0.9512475927721618  0.1844623188205349   F   F   F
  0.7000000000000027  0.0000000000000000  0.1181313319610595   F   F   F
  0.9500000000000028  0.7500000000000000  0.0514307684100572   F   F   F
  0.5499999999999972  0.9500000000000028  0.0514307684100572   F   F   F
  0.4486144413896602  0.7506743341769924  0.1843622545089304   F   F   F
  0.6499999999999986  0.6499999999999986  0.0514307684100572   F   F   F
  0.6000000000000014  0.7999999999999972  0.1181313319610595   F   F   F
  0.5499999999999972  0.4500000000000027  0.0514307684100572   F   F   F
  0.4486122021981009  0.2506766379109669  0.1843629363752118   F   F   F
  0.5959349153084327  0.2968114961634086  0.2526840381456408   T   T   T
  0.5000000000000000  0.6000000000000014  0.1181313319610595   F   F   F
  0.3485320028910852  0.5512631916718084  0.1852336449463447   F   F   F
  0.4964923102734888  0.6057243762256961  0.2533500520563920   T   T   T
  0.4500000000000028  0.7500000000000000  0.0514307684100572   F   F   F
  0.6507236918031661  0.6489854869807887  0.1853661340816861   F   F   F
  0.2974364991925185  0.2025597855488263  0.2592124650222652   T   T   T
  0.0491177240126065  0.9512405474851490  0.1844615703293516   F   F   F
  0.5491175178526683  0.4512445656232251  0.1844618875770611   F   F   F
  0.3500000000000014  0.0499999999999972  0.0514307684100572   F   F   F
  0.2977746986574193  0.7007179355436964  0.2574328106988013   T   T   T
  0.7508195137500963  0.8494626043309830  0.1863319554974455   T   T   T
  0.1953822723815862  0.0015048430294305  0.2537580625260801   T   T   T
  0.2000000000000028  0.0000000000000000  0.1181313319610595   F   F   F
  0.0955892932057830  0.7974908833855843  0.2519795187562753   T   T   T
  0.9486106854241280  0.7506756416198153  0.1843625136127240   F   F   F
  0.1000000000000014  0.7999999999999972  0.1181313319610595   F   F   F
  0.3999999999999986  0.8999999999999986  0.1181313319610595   F   F   F
  0.9969766093146800  0.6062587100789274  0.2532520169360631   T   T   T
  0.7000000000000027  0.5000000000000000  0.1181313319610595   F   F   F
  0.8485338373677122  0.5512634687110046  0.1852339858465592   F   F   F
  0.8500000000000014  0.5499999999999972  0.0514307684100572   F   F   F
  0.4015274094188881  0.4027173172511149  0.2536457491208166   T   T   T
  0.7508223220324999  0.3491043969886114  0.1864219849784793   T   T   T
  0.3999999999999986  0.3999999999999986  0.1181313319610595   F   F   F
  0.7500000000000000  0.3500000000000014  0.0514307684100572   F   F   F
  0.7995441385798243  0.2026047452022511  0.2591179394567346   T   T   T
  0.6507246110173561  0.1489888581776777  0.1853660239556655   F   F   F
  0.7999999999999972  0.2000000000000028  0.1181313319610595   F   F   F
  0.6499999999999986  0.1499999999999986  0.0514307684100572   F   F   F
  0.6949565061525240  0.4988605102807273  0.2543362188609569   T   T   T
  0.0000000000000000  0.6000000000000014  0.1181313319610595   F   F   F
  0.0499999999999972  0.9500000000000028  0.0514307684100572   F   F   F
Cartesian
  0.0000000000000000  0.0000000000000000  0.0000000000000000
  0.0000000000000000  0.0000000000000000  0.0000000000000000
  0.0000000000000000  0.0000000000000000  0.0000000000000000
  0.0000000000000000  0.0000000000000000  0.0000000000000000
  0.0000000000000000  0.0000000000000000  0.0000000000000000
  0.0000000000000000  0.0000000000000000  0.0000000000000000
  0.0000000000000000  0.0000000000000000  0.0000000000000000
  0.0000000000000000  0.0000000000000000  0.0000000000000000
  0.0000000000000000  0.0000000000000000  0.0000000000000000
  0.0000000000000000  0.0000000000000000  0.0000000000000000
  0.0000000000000000  0.0000000000000000  0.0000000000000000
  0.0000000000000000  0.0000000000000000  0.0000000000000000
  0.0000000000000000  0.0000000000000000  0.0000000000000000
  0.0000000000000000  0.0000000000000000  0.0000000000000000
  0.0000000000000000  0.0000000000000000  0.0000000000000000
  0.0000000000000000  0.0000000000000000  0.0000000000000000
  0.0000000000000000  0.0000000000000000  0.0000000000000000
  0.0000000000000000  0.0000000000000000  0.0000000000000000
  0.0000000000000000  0.0000000000000000  0.0000000000000000
  0.0000000000000000  0.0000000000000000  0.0000000000000000
  0.0000000000000000  0.0000000000000000  0.0000000000000000
  0.0000000000000000  0.0000000000000000  0.0000000000000000
  0.0000000000000000  0.0000000000000000  0.0000000000000000
  0.0000000000000000  0.0000000000000000  0.0000000000000000
  0.0000000000000000  0.0000000000000000  0.0000000000000000
  0.0000000000000000  0.0000000000000000  0.0000000000000000
  0.0000000000000000  0.0000000000000000  0.0000000000000000
  0.0000000000000000  0.0000000000000000  0.0000000000000000
  0.0000000000000000  0.0000000000000000  0.0000000000000000
  0.0000000000000000  0.0000000000000000  0.0000000000000000
  0.0000000000000000  0.0000000000000000  0.0000000000000000
  0.0000000000000000  0.0000000000000000  0.0000000000000000
  0.0000000000000000  0.0000000000000000  0.0000000000000000
  0.0000000000000000  0.0000000000000000  0.0000000000000000
  0.0000000000000000  0.0000000000000000  0.0000000000000000
  0.0000000000000000  0.0000000000000000  0.0000000000000000
  0.0000000000000000  0.0000000000000000  0.0000000000000000
  0.0000000000000000  0.0000000000000000  0.0000000000000000
  0.0000000000000000  0.0000000000000000  0.0000000000000000
  0.0000000000000000  0.0000000000000000  0.0000000000000000
  0.0000000000000000  0.0000000000000000  0.0000000000000000
  0.0000000000000000  0.0000000000000000  0.0000000000000000
  0.0000000000000000  0.0000000000000000  0.0000000000000000
  0.0000000000000000  0.0000000000000000  0.0000000000000000
  0.0000000000000000  0.0000000000000000  0.0000000000000000
  0.0000000000000000  0.0000000000000000  0.0000000000000000
  0.0000000000000000  0.0000000000000000  0.0000000000000000
  0.0000000000000000  0.0000000000000000  0.0000000000000000
  0.0000000000000000  0.0000000000000000  0.0000000000000000
  0.0000000000000000  0.0000000000000000  0.0000000000000000
  0.0000000000000000  0.0000000000000000  0.0000000000000000
  0.0000000000000000  0.0000000000000000  0.0000000000000000
  0.0000000000000000  0.0000000000000000  0.0000000000000000
  0.0000000000000000  0.0000000000000000  0.0000000000000000
  0.0000000000000000  0.0000000000000000  0.0000000000000000
  0.0000000000000000  0.0000000000000000  0.0000000000000000
  0.0000000000000000  0.0000000000000000  0.0000000000000000
  0.0000000000000000  0.0000000000000000  0.0000000000000000
  0.0000000000000000  0.0000000000000000  0.0000000000000000
  0.0000000000000000  0.0000000000000000  0.0000000000000000
  0.0000000000000000  0.0000000000000000  0.0000000000000000
  0.0000000000000000  0.0000000000000000  0.0000000000000000
  0.0000000000000000  0.0000000000000000  0.0000000000000000
  0.0000000000000000  0.0000000000000000  0.0000000000000000
  0.0000000000000000  0.0000000000000000  0.0000000000000000
  0.0000000000000000  0.0000000000000000  0.0000000000000000
  0.0000000000000000  0.0000000000000000  0.0000000000000000
  0.0000000000000000  0.0000000000000000  0.0000000000000000
  0.0000000000000000  0.0000000000000000  0.0000000000000000
  0.0000000000000000  0.0000000000000000  0.0000000000000000
  0.0000000000000000  0.0000000000000000  0.0000000000000000
  0.0000000000000000  0.0000000000000000  0.0000000000000000
  0.0000000000000000  0.0000000000000000  0.0000000000000000
  0.0000000000000000  0.0000000000000000  0.0000000000000000
  0.0000000000000000  0.0000000000000000  0.0000000000000000
  0.0000000000000000  0.0000000000000000  0.0000000000000000
  0.0000000000000000  0.0000000000000000  0.0000000000000000
  0.0000000000000000  0.0000000000000000  0.0000000000000000
  0.0000000000000000  0.0000000000000000  0.0000000000000000
  0.0000000000000000  0.0000000000000000  0.0000000000000000
  0.0000000000000000  0.0000000000000000  0.0000000000000000
  0.0000000000000000  0.0000000000000000  0.0000000000000000
  0.0000000000000000  0.0000000000000000  0.0000000000000000
  0.0000000000000000  0.0000000000000000  0.0000000000000000
  0.0000000000000000  0.0000000000000000  0.0000000000000000
  0.0000000000000000  0.0000000000000000  0.0000000000000000
  0.0000000000000000  0.0000000000000000  0.0000000000000000
  0.0000000000000000  0.0000000000000000  0.0000000000000000
  0.0000000000000000  0.0000000000000000  0.0000000000000000
  0.0000000000000000  0.0000000000000000  0.0000000000000000
  0.0000000000000000  0.0000000000000000  0.0000000000000000
  0.0000000000000000  0.0000000000000000  0.0000000000000000
  0.0000000000000000  0.0000000000000000  0.0000000000000000
  0.0000000000000000  0.0000000000000000  0.0000000000000000
  0.0000000000000000  0.0000000000000000  0.0000000000000000
  0.0000000000000000  0.0000000000000000  0.0000000000000000
  0.0000000000000000  0.0000000000000000  0.0000000000000000
  0.0000000000000000  0.0000000000000000  0.0000000000000000
  0.0000000000000000  0.0000000000000000  0.0000000000000000
  0.0000000000000000  0.0000000000000000  0.0000000000000000
  0.0000000000000000  0.0000000000000000  0.0000000000000000
  0.0000000000000000  0.0000000000000000  0.0000000000000000
  0.0000000000000000  0.0000000000000000  0.0000000000000000
  0.0000000000000000  0.0000000000000000  0.0000000000000000
  0.0000000000000000  0.0000000000000000  0.0000000000000000
  0.0000000000000000  0.0000000000000000  0.0000000000000000
  0.0000000000000000  0.0000000000000000  0.0000000000000000
  0.0000000000000000  0.0000000000000000  0.0000000000000000
  0.0000000000000000  0.0000000000000000  0.0000000000000000
  0.0000000000000000  0.0000000000000000  0.0000000000000000
  0.0000000000000000  0.0000000000000000  0.0000000000000000
  0.0000000000000000  0.0000000000000000  0.0000000000000000
  0.0000000000000000  0.0000000000000000  0.0000000000000000
  0.0000000000000000  0.0000000000000000  0.0000000000000000
  0.0000000000000000  0.0000000000000000  0.0000000000000000
  0.0000000000000000  0.0000000000000000  0.0000000000000000
  0.0000000000000000  0.0000000000000000  0.0000000000000000
  0.0000000000000000  0.0000000000000000  0.0000000000000000
  0.0000000000000000  0.0000000000000000  0.0000000000000000
