C  H  O  Pd
 1.0000000000000000
    12.3034736924171124    0.0000000000000000    0.0000000000000000
     0.0000000000000000   12.3034736924171142    0.0000000000000000
     0.0000000000000000    0.0000000000000000   29.1654207465942434
 C   H   O   Pd 
   1   3  17  96
Selective dynamics
Direct
  0.5262743908738357  0.3622810160301946  0.4242856378295196   T   T   T
  0.5509763403417629  0.4474107269030249  0.4146868535211822   T   T   T
  0.5139788220081511  0.3600216741053652  0.4619772443343383   T   T   T
  0.5959907555837205  0.3077907367894815  0.4156827507401535   T   T   T
  0.4281284428224493  0.3310753536878561  0.4041730486832785   T   T   T
  0.6875886035504144  0.1389247700743624  0.3604850798793388   T   T   T
  0.1872742537215531  0.6393149477748220  0.3619925407632678   T   T   T
  0.4391626774249665  0.1337059731406045  0.3626750524650409   T   T   T
  0.4361797598422578  0.4431326950502806  0.3199584995239655   T   T   T
  0.1888128137962897  0.9444424526036395  0.3205356956733820   T   T   T
  0.6888877320005167  0.9444360113272233  0.3204150448606622   T   T   T
  0.1902813517034556  0.4460411341442790  0.3209352077107254   T   T   T
  0.9407740591172811  0.6360443487244003  0.3634352718634159   T   T   T
  0.6904203376407515  0.4464046781438938  0.3210820595041867   T   T   T
  0.4401841962038848  0.6372487248340737  0.3627934403245357   T   T   T
  0.4353452866217157  0.9408549282681804  0.3210404318974072   T   T   T
  0.9357969076846119  0.4424098397039213  0.3213933594434476   T   T   T
  0.9392394836012470  0.1366397445267991  0.3614580873974510   T   T   T
  0.9352500154991320  0.9400082055144002  0.3214018713363272   T   T   T
  0.1855886079974950  0.1391045283804858  0.3603105895649965   T   T   T
  0.6878493394360807  0.6394937846253247  0.3624856553091763   T   T   T
  0.8500000000000014  0.0499999999999972  0.0514307684100572   F   F   F
  0.9008309233482009  0.9027914384082911  0.2537019606056308   T   T   T
  0.2499707131254955  0.8492987964248615  0.1855932700389138   T   T   T
  0.0620221132951591  0.0431333076109619  0.3393797160262434   T   T   T
  0.1507236091547503  0.1489864169829936  0.1853656493630883   F   F   F
  0.9500000000000028  0.2500000000000000  0.0514307684100572   F   F   F
  0.1499999999999986  0.1499999999999986  0.0514307684100572   F   F   F
  0.2999999999999972  0.2000000000000028  0.1181313319610595   F   F   F
  0.0000000000000000  0.1000000000000014  0.1181313319610595   F   F   F
  0.9486127127564162  0.2506768571014975  0.1843632683220324   F   F   F
  0.9968068470500837  0.1058770426477444  0.2531409537079861   T   T   T
  0.1000000000000014  0.2999999999999972  0.1181313319610595   F   F   F
  0.5633894661524510  0.5450202649152313  0.3401157104415016   T   T   T
  0.1902776685799851  0.2852692854698002  0.3345559747067131   T   T   T
  0.0957784442830583  0.2971021756589947  0.2521886929274702   T   T   T
  0.0499999999999972  0.4500000000000027  0.0514307684100572   F   F   F
  0.2000000000000028  0.5000000000000000  0.1181313319610595   F   F   F
  0.0491193131827514  0.4512444611448465  0.1844626448581111   F   F   F
  0.8485330413376032  0.0512636254534289  0.1852339871257567   F   F   F
  0.3145120493620425  0.5474278103833959  0.3403488710536541   T   T   T
  0.4500000000000028  0.2500000000000000  0.0514307684100572   F   F   F
  0.3485341556527256  0.0512641898857512  0.1852337169709379   F   F   F
  0.9394845233129212  0.7768390355833527  0.3326882847479154   T   T   T
  0.4007216659001786  0.9035317895123850  0.2535129134365987   T   T   T
  0.1898619746616092  0.7840404940575099  0.3348855175550555   T   T   T
  0.3133139689320974  0.0470248291839747  0.3391041246069268   T   T   T
  0.8145089990109360  0.5473696052456949  0.3406806529094259   T   T   T
  0.6925304769219790  0.2849476683988410  0.3344169439273703   T   T   T
  0.9391321053049789  0.2783670153086266  0.3315030195397882   T   T   T
  0.4399179281930148  0.7773934980715443  0.3317717484809150   T   T   T
  0.0632995870554517  0.5440301834953556  0.3401942286115449   T   T   T
  0.6903733173404353  0.7839687073458423  0.3349339792045640   T   T   T
  0.5621652364666345  0.0439947000137145  0.3389196274245009   T   T   T
  0.8136873212627000  0.0460411934440897  0.3392603992509217   T   T   T
  0.8999999999999986  0.8999999999999986  0.1181313319610595   F   F   F
  0.9002478998708927  0.4044650682907998  0.2536290480720099   T   T   T
  0.2499682108142002  0.3493012120833129  0.1855937382329413   T   T   T
  0.2500000000000000  0.3500000000000014  0.0514307684100572   F   F   F
  0.2500000000000000  0.8500000000000014  0.0514307684100572   F   F   F
  0.4370356406347640  0.2829741592976667  0.3379257114225395   T   T   T
  0.1507252829162628  0.6489864416498848  0.1853659281879895   F   F   F
  0.1957338660387279  0.4992378901431725  0.2539253306501981   T   T   T
  0.4964711014456092  0.1062394713653315  0.2529716497682483   T   T   T
  0.5000000000000000  0.1000000000000014  0.1181313319610595   F   F   F
  0.2992394635389725  0.2016182767757002  0.2576903651468335   T   T   T
  0.2983079597230081  0.7009001416360227  0.2575478036506778   T   T   T
  0.8999999999999986  0.3999999999999986  0.1181313319610595   F   F   F
  0.5960027014694022  0.7965885142971819  0.2522633420802627   T   T   T
  0.7500000000000000  0.8500000000000014  0.0514307684100572   F   F   F
  0.7983895987726172  0.7003016541095176  0.2575032062912564   T   T   T
  0.2999999999999972  0.7000000000000028  0.1181313319610595   F   F   F
  0.6000000000000014  0.2999999999999972  0.1181313319610595   F   F   F
  0.7999999999999972  0.7000000000000028  0.1181313319610595   F   F   F
  0.6958167127274639 -0.0005419640573483  0.2537327556419736   T   T   T
  0.5491182374295687  0.9512475927721618  0.1844623188205349   F   F   F
  0.7000000000000027  0.0000000000000000  0.1181313319610595   F   F   F
  0.5499999999999972  0.9500000000000028  0.0514307684100572   F   F   F
  0.6507236918031661  0.6489854869807887  0.1853661340816861   F   F   F
  0.4486144413896602  0.7506743341769924  0.1843622545089304   F   F   F
  0.6499999999999986  0.6499999999999986  0.0514307684100572   F   F   F
  0.6000000000000014  0.7999999999999972  0.1181313319610595   F   F   F
  0.5499999999999972  0.4500000000000027  0.0514307684100572   F   F   F
  0.4486122021981009  0.2506766379109669  0.1843629363752118   F   F   F
  0.5948661058798960  0.2970167936781976  0.2528029041628474   T   T   T
  0.5000000000000000  0.6000000000000014  0.1181313319610595   F   F   F
  0.3485320028910852  0.5512631916718084  0.1852336449463447   F   F   F
  0.4962258819529864  0.6056221677226262  0.2531196482533223   T   T   T
  0.4500000000000028  0.7500000000000000  0.0514307684100572   F   F   F
  0.1499999999999986  0.6499999999999986  0.0514307684100572   F   F   F
  0.9500000000000028  0.7500000000000000  0.0514307684100572   F   F   F
  0.0491177240126065  0.9512405474851490  0.1844615703293516   F   F   F
  0.7000000000000027  0.5000000000000000  0.1181313319610595   F   F   F
  0.3500000000000014  0.0499999999999972  0.0514307684100572   F   F   F
  0.7499668075026139  0.8492990416203603  0.1855918419518905   T   T   T
  0.1960450127963679 -0.0003246841690096  0.2536301164249611   T   T   T
  0.2000000000000028  0.0000000000000000  0.1181313319610595   F   F   F
  0.0499999999999972  0.9500000000000028  0.0514307684100572   F   F   F
  0.9486106854241280  0.7506756416198153  0.1843625136127240   F   F   F
  0.1000000000000014  0.7999999999999972  0.1181313319610595   F   F   F
  0.3999999999999986  0.8999999999999986  0.1181313319610595   F   F   F
  0.9969857793080771  0.6067581244879683  0.2535378960703642   T   T   T
  0.8485338373677122  0.5512634687110046  0.1852339858465592   F   F   F
  0.3500000000000014  0.5499999999999972  0.0514307684100572   F   F   F
  0.0000000000000000  0.6000000000000014  0.1181313319610595   F   F   F
  0.4006226122780571  0.4018171845734291  0.2537391261646431   T   T   T
  0.7499688545785510  0.3493009249718623  0.1855923550188662   T   T   T
  0.3999999999999986  0.3999999999999986  0.1181313319610595   F   F   F
  0.7500000000000000  0.3500000000000014  0.0514307684100572   F   F   F
  0.7983684567744324  0.2012985059030084  0.2571993283545790   T   T   T
  0.6507246110173561  0.1489888581776777  0.1853660239556655   F   F   F
  0.7999999999999972  0.2000000000000028  0.1181313319610595   F   F   F
  0.6499999999999986  0.1499999999999986  0.0514307684100572   F   F   F
  0.6951852369019961  0.4992131320564713  0.2539664428688508   T   T   T
  0.5491175178526683  0.4512445656232251  0.1844618875770611   F   F   F
  0.8500000000000014  0.5499999999999972  0.0514307684100572   F   F   F
  0.0960370075090804  0.7972072139718653  0.2523237068920018   T   T   T
Cartesian
  0.0000000000000000  0.0000000000000000  0.0000000000000000
  0.0000000000000000  0.0000000000000000  0.0000000000000000
  0.0000000000000000  0.0000000000000000  0.0000000000000000
  0.0000000000000000  0.0000000000000000  0.0000000000000000
  0.0000000000000000  0.0000000000000000  0.0000000000000000
  0.0000000000000000  0.0000000000000000  0.0000000000000000
  0.0000000000000000  0.0000000000000000  0.0000000000000000
  0.0000000000000000  0.0000000000000000  0.0000000000000000
  0.0000000000000000  0.0000000000000000  0.0000000000000000
  0.0000000000000000  0.0000000000000000  0.0000000000000000
  0.0000000000000000  0.0000000000000000  0.0000000000000000
  0.0000000000000000  0.0000000000000000  0.0000000000000000
  0.0000000000000000  0.0000000000000000  0.0000000000000000
  0.0000000000000000  0.0000000000000000  0.0000000000000000
  0.0000000000000000  0.0000000000000000  0.0000000000000000
  0.0000000000000000  0.0000000000000000  0.0000000000000000
  0.0000000000000000  0.0000000000000000  0.0000000000000000
  0.0000000000000000  0.0000000000000000  0.0000000000000000
  0.0000000000000000  0.0000000000000000  0.0000000000000000
  0.0000000000000000  0.0000000000000000  0.0000000000000000
  0.0000000000000000  0.0000000000000000  0.0000000000000000
  0.0000000000000000  0.0000000000000000  0.0000000000000000
  0.0000000000000000  0.0000000000000000  0.0000000000000000
  0.0000000000000000  0.0000000000000000  0.0000000000000000
  0.0000000000000000  0.0000000000000000  0.0000000000000000
  0.0000000000000000  0.0000000000000000  0.0000000000000000
  0.0000000000000000  0.0000000000000000  0.0000000000000000
  0.0000000000000000  0.0000000000000000  0.0000000000000000
  0.0000000000000000  0.0000000000000000  0.0000000000000000
  0.0000000000000000  0.0000000000000000  0.0000000000000000
  0.0000000000000000  0.0000000000000000  0.0000000000000000
  0.0000000000000000  0.0000000000000000  0.0000000000000000
  0.0000000000000000  0.0000000000000000  0.0000000000000000
  0.0000000000000000  0.0000000000000000  0.0000000000000000
  0.0000000000000000  0.0000000000000000  0.0000000000000000
  0.0000000000000000  0.0000000000000000  0.0000000000000000
  0.0000000000000000  0.0000000000000000  0.0000000000000000
  0.0000000000000000  0.0000000000000000  0.0000000000000000
  0.0000000000000000  0.0000000000000000  0.0000000000000000
  0.0000000000000000  0.0000000000000000  0.0000000000000000
  0.0000000000000000  0.0000000000000000  0.0000000000000000
  0.0000000000000000  0.0000000000000000  0.0000000000000000
  0.0000000000000000  0.0000000000000000  0.0000000000000000
  0.0000000000000000  0.0000000000000000  0.0000000000000000
  0.0000000000000000  0.0000000000000000  0.0000000000000000
  0.0000000000000000  0.0000000000000000  0.0000000000000000
  0.0000000000000000  0.0000000000000000  0.0000000000000000
  0.0000000000000000  0.0000000000000000  0.0000000000000000
  0.0000000000000000  0.0000000000000000  0.0000000000000000
  0.0000000000000000  0.0000000000000000  0.0000000000000000
  0.0000000000000000  0.0000000000000000  0.0000000000000000
  0.0000000000000000  0.0000000000000000  0.0000000000000000
  0.0000000000000000  0.0000000000000000  0.0000000000000000
  0.0000000000000000  0.0000000000000000  0.0000000000000000
  0.0000000000000000  0.0000000000000000  0.0000000000000000
  0.0000000000000000  0.0000000000000000  0.0000000000000000
  0.0000000000000000  0.0000000000000000  0.0000000000000000
  0.0000000000000000  0.0000000000000000  0.0000000000000000
  0.0000000000000000  0.0000000000000000  0.0000000000000000
  0.0000000000000000  0.0000000000000000  0.0000000000000000
  0.0000000000000000  0.0000000000000000  0.0000000000000000
  0.0000000000000000  0.0000000000000000  0.0000000000000000
  0.0000000000000000  0.0000000000000000  0.0000000000000000
  0.0000000000000000  0.0000000000000000  0.0000000000000000
  0.0000000000000000  0.0000000000000000  0.0000000000000000
  0.0000000000000000  0.0000000000000000  0.0000000000000000
  0.0000000000000000  0.0000000000000000  0.0000000000000000
  0.0000000000000000  0.0000000000000000  0.0000000000000000
  0.0000000000000000  0.0000000000000000  0.0000000000000000
  0.0000000000000000  0.0000000000000000  0.0000000000000000
  0.0000000000000000  0.0000000000000000  0.0000000000000000
  0.0000000000000000  0.0000000000000000  0.0000000000000000
  0.0000000000000000  0.0000000000000000  0.0000000000000000
  0.0000000000000000  0.0000000000000000  0.0000000000000000
  0.0000000000000000  0.0000000000000000  0.0000000000000000
  0.0000000000000000  0.0000000000000000  0.0000000000000000
  0.0000000000000000  0.0000000000000000  0.0000000000000000
  0.0000000000000000  0.0000000000000000  0.0000000000000000
  0.0000000000000000  0.0000000000000000  0.0000000000000000
  0.0000000000000000  0.0000000000000000  0.0000000000000000
  0.0000000000000000  0.0000000000000000  0.0000000000000000
  0.0000000000000000  0.0000000000000000  0.0000000000000000
  0.0000000000000000  0.0000000000000000  0.0000000000000000
  0.0000000000000000  0.0000000000000000  0.0000000000000000
  0.0000000000000000  0.0000000000000000  0.0000000000000000
  0.0000000000000000  0.0000000000000000  0.0000000000000000
  0.0000000000000000  0.0000000000000000  0.0000000000000000
  0.0000000000000000  0.0000000000000000  0.0000000000000000
  0.0000000000000000  0.0000000000000000  0.0000000000000000
  0.0000000000000000  0.0000000000000000  0.0000000000000000
  0.0000000000000000  0.0000000000000000  0.0000000000000000
  0.0000000000000000  0.0000000000000000  0.0000000000000000
  0.0000000000000000  0.0000000000000000  0.0000000000000000
  0.0000000000000000  0.0000000000000000  0.0000000000000000
  0.0000000000000000  0.0000000000000000  0.0000000000000000
  0.0000000000000000  0.0000000000000000  0.0000000000000000
  0.0000000000000000  0.0000000000000000  0.0000000000000000
  0.0000000000000000  0.0000000000000000  0.0000000000000000
  0.0000000000000000  0.0000000000000000  0.0000000000000000
  0.0000000000000000  0.0000000000000000  0.0000000000000000
  0.0000000000000000  0.0000000000000000  0.0000000000000000
  0.0000000000000000  0.0000000000000000  0.0000000000000000
  0.0000000000000000  0.0000000000000000  0.0000000000000000
  0.0000000000000000  0.0000000000000000  0.0000000000000000
  0.0000000000000000  0.0000000000000000  0.0000000000000000
  0.0000000000000000  0.0000000000000000  0.0000000000000000
  0.0000000000000000  0.0000000000000000  0.0000000000000000
  0.0000000000000000  0.0000000000000000  0.0000000000000000
  0.0000000000000000  0.0000000000000000  0.0000000000000000
  0.0000000000000000  0.0000000000000000  0.0000000000000000
  0.0000000000000000  0.0000000000000000  0.0000000000000000
  0.0000000000000000  0.0000000000000000  0.0000000000000000
  0.0000000000000000  0.0000000000000000  0.0000000000000000
  0.0000000000000000  0.0000000000000000  0.0000000000000000
  0.0000000000000000  0.0000000000000000  0.0000000000000000
  0.0000000000000000  0.0000000000000000  0.0000000000000000
  0.0000000000000000  0.0000000000000000  0.0000000000000000
