Automatic mesh
0
Gamma
  6  6  8
  0  0  0
