C  H  O  Pd
 1.0000000000000000
    12.2143708368485502    0.0000000000000000    0.0000000000000007
     0.0000000000000017   10.8116922467861709    0.0000000000000007
     0.0000000000000000    0.0000000000000000   29.2503334901734533
 C   H   O   Pd 
   2   3  50  56
Selective dynamics
Direct
  0.9473720022977240  0.8521247191223525  0.4601482077072631   T   T   T
  0.6433508686965561  0.8345110711406892  0.4149023030742517   T   T   T
  0.9759356123462762  0.9342077589149359  0.4409313551041653   T   T   T
  0.8860971680978983  0.8813295879775495  0.4857346687865575   T   T   T
  1.0179204802974695  0.8102432232536717  0.4781282425001180   T   T   T
  0.5000000000000000  0.1250000000000000  0.1034790374483450   F   F   F
  0.5000000000000000  0.3750000000000000  0.1034790374483450   F   F   F
  0.2500244823377948  0.8755440333101896  0.3148586449096649   T   T   T
  0.2502088563839269  0.6257505272368874  0.2089086773145131   T   T   T
  0.2502009611712102  0.8743599992790446  0.2088425318983375   T   T   T
  0.2500000000000000  0.6250000000000000  0.1034790374483450   F   F   F
  0.2502883067439733  0.6251061214902413  0.3149331279475498   T   T   T
  0.5000000000000000  0.8750000000000001  0.1034790374483450   F   F   F
  0.5000000000000000  0.6250000000000000  0.1034790374483450   F   F   F
  0.4999058979480706  0.8744817172714462  0.2087668384497420   T   T   T
  0.7509956009859857  0.6198990297176820  0.3117664447457467   T   T   T
  0.4997794380303333  0.3743360540143827  0.2087905077205136   T   T   T
  0.7502587730574782  0.8764395019042539  0.3130131087116870   T   T   T
  0.7499784970851067  0.6254038528748387  0.2085856215710121   F   F   F
  0.7498608012012296  0.8741266019774447  0.2088785730018517   T   T   T
  0.7500000000000000  0.6250000000000000  0.1034790374483450   F   F   F
  0.2500000000000000  0.8750000000000001  0.1034790374483450   F   F   F
  0.7500000000000000  0.8750000000000001  0.1034790374483450   F   F   F
  0.6357983296004246  0.8856707371827294  0.4506647905040613   T   T   T
  0.8982353961951266  0.7611724752111378  0.4308260174136309   T   T   T
  0.4999503898740653  0.6256847570050089  0.2088233738493439   T   T   T
  0.4998417308814472  0.1258930211904082  0.2089267202575311   T   T   T
  0.4996412355159340  0.1250339041456082  0.3147864288430091   T   T   T
  0.7499999407901679  0.1253564590539261  0.2086346494759109   T   T   T
  0.4998800402188758  0.3761371890407884  0.3148820559757921   T   T   T
  0.0000000000000000  0.6250000000000000  0.1034790374483450   F   F   F
  0.2512840548299491  0.1247875765825721  0.3150299619095694   T   T   T
  0.7500704924020587  0.3744635917143383  0.3135295237846240   T   T   T
  0.5012567561555166  0.8755971611857701  0.3140406048302573   T   T   T
  0.5032401378103654  0.6271840300287445  0.3151953833748724   T   T   T
  0.7500000000000000  0.3750000000000000  0.1034790374483450   F   F   F
  0.2534872067166876  0.3759958371972275  0.3149304127316078   T   T   T
  0.0000001717890977  0.6253564676804197  0.2086346535078811   T   T   T
  1.0014274680065682  0.8784894958153486  0.3119193391468593   T   T   T
  1.0012975343046393  0.1245784582512390  0.3137327823275835   T   T   T
  1.0020234920887485  0.3747103088175393  0.3132746435010316   T   T   T
  0.0000483153585530  0.8747949085867408  0.2085300349615394   F   F   F
  0.0000000906673265  0.3746433398517112  0.2086346491200444   T   T   T
  0.2500000000000000  0.3750000000000000  0.1034790374483450   F   F   F
 -0.0000000000000000  0.8750000000000001  0.1034790374483450   F   F   F
  0.2502105570079788  0.3741070443000395  0.2089276124350529   T   T   T
  0.2500000000000000  0.1250000000000000  0.1034790374483450   F   F   F
  0.2500609441852770  0.1257565752463708  0.2089093165169431   T   T   T
  0.0000000000000000  0.3750000000000000  0.1034790374483450   F   F   F
  0.0000000000000000  0.1250000000000000  0.1034790374483450   F   F   F
  0.7500000000000000  0.1250000000000000  0.1034790374483450   F   F   F
  0.7500000113728454  0.3746434304486337  0.2086345460683278   F   F   F
  0.0000816857913338  0.1252451240370968  0.2084785239975925   F   F   F
  0.7499790672963479  0.1239658630159866  0.3134892220576520   T   T   T
  0.0018687070427534  0.6212174598283101  0.3121253217867772   T   T   T
  0.8766648436811486  0.0008860421377482  0.3104132254392394   T   T   T
  0.7499138171433501  0.2493242649788709  0.2616051364289553   T   T   T
  0.7497215799210929  0.7474017298120610  0.2624761448248754   T   T   T
  0.8748063421353878  0.4971846757225578  0.3098949391740132   T   T   T
  0.7500001417602953  0.7499994873041090  0.1560720019688409   F   F   F
  0.8750002628252658  0.9999999076726724  0.2083511414037477   F   F   F
  0.7499999492943173  0.2499998973890912  0.1560719005187454   F   F   F
  0.0000000305378639  0.2499999899091724  0.1560719922121782   F   F   F
  0.1250000490227787  0.9999999537391714  0.2083512510515163   F   F   F
  0.1260123052316012  1.0009294331599887  0.3114580970865240   T   T   T
  0.0000000000000000  0.2500000000000000  0.0512814666029016   F   F   F
  0.5692528548815898  0.7445982021630576  0.3685651945267424   T   T   T
  1.0011337653548795  0.2495618068515591  0.2615727578299899   T   T   T
  0.8750003526753075  0.4999998740212845  0.2083512073452132   F   F   F
  0.7500000000000000  0.7500000000000000  0.0512814666029016   F   F   F
  0.8750000000000000  0.5000000000000000  0.1034790374483450   F   F   F
  1.0009493796721007  0.2513732320497911  0.3699514554635920   T   T   T
  0.3756052742418617  0.9992456299646123  0.3136172385677642   T   T   T
  0.6250000282706359  0.5000001736904404  0.2083512799526737   F   F   F
  0.6259019876341592  0.4988936471740980  0.3109219306558315   T   T   T
  0.3750000000000000  0.0000000000000000  0.1034790374483450   F   F   F
  0.8750000000000000  0.0000000000000000  0.1034790374483450   F   F   F
  0.7523532735485573  0.2472679873961162  0.3699209455981579   T   T   T
  0.1250000000000000  0.5000000000000000  0.1034790374483450   F   F   F
  0.4987727428681094  0.2506016807274504  0.2624591953829549   T   T   T
  0.7873413758475338  0.8168101133936750  0.3790821434816079   T   T   T
  0.2500001174677877  0.2500001432992012  0.1560720953180006   F   F   F
  0.5000000000000000  0.2500000000000000  0.0512814666029016   F   F   F
  0.2500000128051262  0.7499998164578953  0.1560720125206892   F   F   F
  0.2474126769138431  0.2515206700914470  0.3708914557723118   T   T   T
  0.2519841916490534  0.2497823065371794  0.2625189113524302   T   T   T
  0.2500000000000000  0.2500000000000000  0.0512814666029016   F   F   F
  0.3750000000000000  0.5000000000000000  0.1034790374483450   F   F   F
  0.3749999192595975  0.4999999237622314  0.2083514410374566   F   F   F
  0.6250000000000000  0.0000000000000000  0.1034790374483450   F   F   F
  0.2500000000000000  0.7500000000000000  0.0512814666029016   F   F   F
  0.4998154520181243  0.7506354899804174  0.2624948559974337   T   T   T
  0.6250001596235294  0.9999998419141339  0.2083511880761280   F   F   F
  0.4999999644933695  0.7499995734433390  0.1560719522146622   F   F   F
  0.1250000000000000  0.0000000000000000  0.1034790374483450   F   F   F
  0.1250001864597102  0.4999997469804928  0.2083513416983053   F   F   F
  0.5000000000000000  0.7500000000000000  0.0512814666029016   F   F   F
  0.0018848757452772  0.7519894423832387  0.2618773711842347   T   T   T
  0.5056133075716029  0.2503195116888158  0.3708976258391485   T   T   T
  0.1277065788305489  0.4978193508777073  0.3121880932559618   T   T   T
  0.6243558134199431  0.0012809715355642  0.3111891516254497   T   T   T
  0.9776362967463103  0.6900754515654690  0.3753259905925903   T   T   T
  0.5000000770400611  0.2499999680531972  0.1560718497316933   F   F   F
  0.2514526505451050  0.7502535292334270  0.2621986237552085   T   T   T
  0.0000002340500750  0.7499998236723172  0.1560719263822670   F   F   F
  0.3769672289051980  0.5022269670063975  0.3141733310795063   T   T   T
  0.7500000000000000  0.2500000000000000  0.0512814666029016   F   F   F
  0.1949436121357790  0.7488892982067269  0.3658652247426201   T   T   T
  0.0000000000000000  0.7500000000000000  0.0512814666029016   F   F   F
  0.6250000000000000  0.5000000000000000  0.1034790374483450   F   F   F
  0.3749999766530777  0.0000000103848568  0.2083513401927624   F   F   F
Cartesian
  0.0000000000000000  0.0000000000000000  0.0000000000000000
  0.0000000000000000  0.0000000000000000  0.0000000000000000
  0.0000000000000000  0.0000000000000000  0.0000000000000000
  0.0000000000000000  0.0000000000000000  0.0000000000000000
  0.0000000000000000  0.0000000000000000  0.0000000000000000
  0.0000000000000000  0.0000000000000000  0.0000000000000000
  0.0000000000000000  0.0000000000000000  0.0000000000000000
  0.0000000000000000  0.0000000000000000  0.0000000000000000
  0.0000000000000000  0.0000000000000000  0.0000000000000000
  0.0000000000000000  0.0000000000000000  0.0000000000000000
  0.0000000000000000  0.0000000000000000  0.0000000000000000
  0.0000000000000000  0.0000000000000000  0.0000000000000000
  0.0000000000000000  0.0000000000000000  0.0000000000000000
  0.0000000000000000  0.0000000000000000  0.0000000000000000
  0.0000000000000000  0.0000000000000000  0.0000000000000000
  0.0000000000000000  0.0000000000000000  0.0000000000000000
  0.0000000000000000  0.0000000000000000  0.0000000000000000
  0.0000000000000000  0.0000000000000000  0.0000000000000000
  0.0000000000000000  0.0000000000000000  0.0000000000000000
  0.0000000000000000  0.0000000000000000  0.0000000000000000
  0.0000000000000000  0.0000000000000000  0.0000000000000000
  0.0000000000000000  0.0000000000000000  0.0000000000000000
  0.0000000000000000  0.0000000000000000  0.0000000000000000
  0.0000000000000000  0.0000000000000000  0.0000000000000000
  0.0000000000000000  0.0000000000000000  0.0000000000000000
  0.0000000000000000  0.0000000000000000  0.0000000000000000
  0.0000000000000000  0.0000000000000000  0.0000000000000000
  0.0000000000000000  0.0000000000000000  0.0000000000000000
  0.0000000000000000  0.0000000000000000  0.0000000000000000
  0.0000000000000000  0.0000000000000000  0.0000000000000000
  0.0000000000000000  0.0000000000000000  0.0000000000000000
  0.0000000000000000  0.0000000000000000  0.0000000000000000
  0.0000000000000000  0.0000000000000000  0.0000000000000000
  0.0000000000000000  0.0000000000000000  0.0000000000000000
  0.0000000000000000  0.0000000000000000  0.0000000000000000
  0.0000000000000000  0.0000000000000000  0.0000000000000000
  0.0000000000000000  0.0000000000000000  0.0000000000000000
  0.0000000000000000  0.0000000000000000  0.0000000000000000
  0.0000000000000000  0.0000000000000000  0.0000000000000000
  0.0000000000000000  0.0000000000000000  0.0000000000000000
  0.0000000000000000  0.0000000000000000  0.0000000000000000
  0.0000000000000000  0.0000000000000000  0.0000000000000000
  0.0000000000000000  0.0000000000000000  0.0000000000000000
  0.0000000000000000  0.0000000000000000  0.0000000000000000
  0.0000000000000000  0.0000000000000000  0.0000000000000000
  0.0000000000000000  0.0000000000000000  0.0000000000000000
  0.0000000000000000  0.0000000000000000  0.0000000000000000
  0.0000000000000000  0.0000000000000000  0.0000000000000000
  0.0000000000000000  0.0000000000000000  0.0000000000000000
  0.0000000000000000  0.0000000000000000  0.0000000000000000
  0.0000000000000000  0.0000000000000000  0.0000000000000000
  0.0000000000000000  0.0000000000000000  0.0000000000000000
  0.0000000000000000  0.0000000000000000  0.0000000000000000
  0.0000000000000000  0.0000000000000000  0.0000000000000000
  0.0000000000000000  0.0000000000000000  0.0000000000000000
  0.0000000000000000  0.0000000000000000  0.0000000000000000
  0.0000000000000000  0.0000000000000000  0.0000000000000000
  0.0000000000000000  0.0000000000000000  0.0000000000000000
  0.0000000000000000  0.0000000000000000  0.0000000000000000
  0.0000000000000000  0.0000000000000000  0.0000000000000000
  0.0000000000000000  0.0000000000000000  0.0000000000000000
  0.0000000000000000  0.0000000000000000  0.0000000000000000
  0.0000000000000000  0.0000000000000000  0.0000000000000000
  0.0000000000000000  0.0000000000000000  0.0000000000000000
  0.0000000000000000  0.0000000000000000  0.0000000000000000
  0.0000000000000000  0.0000000000000000  0.0000000000000000
  0.0000000000000000  0.0000000000000000  0.0000000000000000
  0.0000000000000000  0.0000000000000000  0.0000000000000000
  0.0000000000000000  0.0000000000000000  0.0000000000000000
  0.0000000000000000  0.0000000000000000  0.0000000000000000
  0.0000000000000000  0.0000000000000000  0.0000000000000000
  0.0000000000000000  0.0000000000000000  0.0000000000000000
  0.0000000000000000  0.0000000000000000  0.0000000000000000
  0.0000000000000000  0.0000000000000000  0.0000000000000000
  0.0000000000000000  0.0000000000000000  0.0000000000000000
  0.0000000000000000  0.0000000000000000  0.0000000000000000
  0.0000000000000000  0.0000000000000000  0.0000000000000000
  0.0000000000000000  0.0000000000000000  0.0000000000000000
  0.0000000000000000  0.0000000000000000  0.0000000000000000
  0.0000000000000000  0.0000000000000000  0.0000000000000000
  0.0000000000000000  0.0000000000000000  0.0000000000000000
  0.0000000000000000  0.0000000000000000  0.0000000000000000
  0.0000000000000000  0.0000000000000000  0.0000000000000000
  0.0000000000000000  0.0000000000000000  0.0000000000000000
  0.0000000000000000  0.0000000000000000  0.0000000000000000
  0.0000000000000000  0.0000000000000000  0.0000000000000000
  0.0000000000000000  0.0000000000000000  0.0000000000000000
  0.0000000000000000  0.0000000000000000  0.0000000000000000
  0.0000000000000000  0.0000000000000000  0.0000000000000000
  0.0000000000000000  0.0000000000000000  0.0000000000000000
  0.0000000000000000  0.0000000000000000  0.0000000000000000
  0.0000000000000000  0.0000000000000000  0.0000000000000000
  0.0000000000000000  0.0000000000000000  0.0000000000000000
  0.0000000000000000  0.0000000000000000  0.0000000000000000
  0.0000000000000000  0.0000000000000000  0.0000000000000000
  0.0000000000000000  0.0000000000000000  0.0000000000000000
  0.0000000000000000  0.0000000000000000  0.0000000000000000
  0.0000000000000000  0.0000000000000000  0.0000000000000000
  0.0000000000000000  0.0000000000000000  0.0000000000000000
  0.0000000000000000  0.0000000000000000  0.0000000000000000
  0.0000000000000000  0.0000000000000000  0.0000000000000000
  0.0000000000000000  0.0000000000000000  0.0000000000000000
  0.0000000000000000  0.0000000000000000  0.0000000000000000
  0.0000000000000000  0.0000000000000000  0.0000000000000000
  0.0000000000000000  0.0000000000000000  0.0000000000000000
  0.0000000000000000  0.0000000000000000  0.0000000000000000
  0.0000000000000000  0.0000000000000000  0.0000000000000000
  0.0000000000000000  0.0000000000000000  0.0000000000000000
  0.0000000000000000  0.0000000000000000  0.0000000000000000
  0.0000000000000000  0.0000000000000000  0.0000000000000000
  0.0000000000000000  0.0000000000000000  0.0000000000000000
