C  O  Pd
 1.0000000000000000
    11.0046904376558210    0.0000000000000000    0.0000000000000000
     0.0000000000000000   11.0046904376558210    0.0000000000000000
     0.0000000000000000    0.0000000000000000   27.7814912333251840
 C   O   Pd 
   1   1  80
Selective dynamics
Direct
  0.6247114187876183  0.8781721242114436  0.3766003239116534   T   T   T
  0.6248562192118747  0.8786815224130856  0.4205012107958606   T   T   T
  0.5007466632294448  0.7522313761974152  0.3408549728530506   T   T   T
  0.0000000000000000  0.5000000000000000  0.0539927820073487   F   F   F
  0.2500000000000000  0.0000000000000000  0.0539927820073487   F   F   F
  0.5000000000000000  0.0000000000000000  0.0539927820073487   F   F   F
  0.7500000000000000  0.0000000000000000  0.0539927820073487   F   F   F
  0.0000000000000000  0.2500000000000000  0.0539927820073487   F   F   F
  0.2500000000000000  0.2500000000000000  0.0539927820073487   F   F   F
  0.5000000000000000  0.2500000000000000  0.0539927820073487   F   F   F
  0.6250000000000001  0.1250000000000000  0.1240168419828507   F   F   F
  0.7500000000000000  0.2500000000000000  0.0539927820073487   F   F   F
  0.3750000000000000  0.1250000000000000  0.1240168419828507   F   F   F
  0.5000000000000000  0.5000000000000000  0.0539927820073487   F   F   F
  0.7500000000000000  0.5000000000000000  0.0539927820073487   F   F   F
  0.0000000000000000  0.7500000000000000  0.0539927820073487   F   F   F
  0.2500000000000000  0.7500000000000000  0.0539927820073487   F   F   F
  0.5000000000000000  0.7500000000000000  0.0539927820073487   F   F   F
  0.7500000000000000  0.7500000000000000  0.0539927820073487   F   F   F
  0.2500000000000000  0.5000000000000000  0.0539927820073487   F   F   F
  0.7486026921572575  0.7534053392326968  0.3408073929117149   T   T   T
  0.8750000000000000  0.1250000000000000  0.1240168419828507   F   F   F
  0.2503611079126835  0.2501259086551382  0.1954530854019095   T   T   T
  0.3750000000000000  0.3750000000000000  0.1240168419828507   F   F   F
  0.6250000000000001  0.3750000000000000  0.1240168419828507   F   F   F
  0.8750000000000000  0.3750000000000000  0.1240168419828507   F   F   F
  0.1250000000000000  0.6250000000000001  0.1240168419828507   F   F   F
  0.3750000000000000  0.6250000000000001  0.1240168419828507   F   F   F
  0.6250000000000001  0.6250000000000001  0.1240168419828507   F   F   F
  0.8750000000000000  0.6250000000000001  0.1240168419828507   F   F   F
  0.1250000000000000  0.1250000000000000  0.1240168419828507   F   F   F
  0.1250000000000000  0.8750000000000000  0.1240168419828507   F   F   F
  0.6250000000000001  0.8750000000000000  0.1240168419828507   F   F   F
  0.8750000000000000  0.8750000000000000  0.1240168419828507   F   F   F
  0.0007560409600469  0.0009487361208427  0.1955827895920998   T   T   T
  0.2506259819410117  0.0004313702194049  0.1954886465338301   T   T   T
  0.5011909258245653  0.0003220529295835  0.1952618953789396   F   F   F
  0.7512304012621623  0.0011108702694658  0.1951864409003872   F   F   F
  0.0003889332202344  0.2504699759044456  0.1955118183905885   T   T   T
  0.3750000000000000  0.8750000000000000  0.1240168419828507   F   F   F
  0.1250000000000000  0.3750000000000000  0.1240168419828507   F   F   F
  0.0000000000000000  0.0000000000000000  0.0539927820073487   F   F   F
  0.0000203498566803  0.5007278724494594  0.1952612377351515   F   F   F
  0.4997672605788545  0.4988600868558303  0.1952710985530415   F   F   F
  0.7499573443927305  0.5007889452457781  0.1953131712949350   T   T   T
  0.0004163227007524  0.7512993523583509  0.1951749895839474   F   F   F
  0.2498715460216527  0.7503694292830624  0.1952490831604150   F   F   F
  0.4994132680138893  0.7497937145265055  0.1950080401764134   F   F   F
  0.7502084858701671  0.7512207022405042  0.1948841222370004   F   F   F
  0.1258985159247086  0.1255773141601232  0.2671426161706690   T   T   T
  0.3766860260123657  0.1242050817600510  0.2674989354938457   T   T   T
  0.6258927558677312  0.1259133475798902  0.2669842820109349   T   T   T
  0.8755343920205747  0.1254121039841090  0.2675828869759738   T   T   T
  0.1252513835716248  0.3754530805056302  0.2668040103264666   T   T   T
  0.3751592331761642  0.3750795241226155  0.2670747792400812   T   T   T
  0.6253678487285615  0.3759731896897083  0.2668849724715450   T   T   T
  0.8755033344255094  0.3762124672374705  0.2668909284095942   T   T   T
  0.1247070103742907  0.6254003663402018  0.2668957371304184   T   T   T
  0.3758796815097732  0.6257567374671746  0.2673688257512776   T   T   T
  0.6246424653245893  0.6260967774479823  0.2668442416495449   T   T   T
  0.2500686475692985  0.5001102440321408  0.1954826544862276   T   T   T
  0.8739109958814877  0.6272500265300226  0.2672687261903076   T   T   T
  0.3753950824678958  0.8750003704839059  0.2669288949133449   T   T   T
  0.2507946843705495  0.2500854773233733  0.3388421576187602   T   T   T
  0.6253150558636015  0.8757181351234088  0.2653948424633380   T   T   T
  0.8753446529455898  0.8759564396428233  0.2670637400911536   T   T   T
  0.0010940692089451  0.0008303157696396  0.3388130574705842   T   T   T
  0.2504549466860790 -0.0002200298616833  0.3387893991979441   T   T   T
  0.5013958593797659  0.0003688683545002  0.3408132282137706   T   T   T
  0.7497009562237766  0.0015992879358569  0.3409876062266577   T   T   T
  0.0011606730583447  0.2511839238826274  0.3388109469085044   T   T   T
  0.5009627806861422  0.2511580928166532  0.3386113602087092   T   T   T
  0.1253870422420611  0.8752919413254174  0.2669801022716419   T   T   T
  0.7510791445195653  0.2522379373120702  0.3385837297124344   T   T   T
  0.0003786992936912  0.5004388960459913  0.3386628850266205   T   T   T
  0.2496124887424043  0.4995899402984338  0.3387259993820577   T   T   T
  0.4999865160796215  0.5008005426206767  0.3387544378046091   T   T   T
  0.7500664715813122  0.5016548212030236  0.3386696313718798   T   T   T
  0.0000566048692206  0.7506531844479457  0.3386780488512522   T   T   T
  0.2498411443058065  0.7496185767454692  0.3387074668809570   T   T   T
  0.7507266559661461  0.2506475866261401  0.1955295281563852   T   T   T
  0.5000827790466396  0.2497207559443938  0.1955290028333039   T   T   T
Cartesian
  0.0000000000000000  0.0000000000000000  0.0000000000000000
  0.0000000000000000  0.0000000000000000  0.0000000000000000
  0.0000000000000000  0.0000000000000000  0.0000000000000000
  0.0000000000000000  0.0000000000000000  0.0000000000000000
  0.0000000000000000  0.0000000000000000  0.0000000000000000
  0.0000000000000000  0.0000000000000000  0.0000000000000000
  0.0000000000000000  0.0000000000000000  0.0000000000000000
  0.0000000000000000  0.0000000000000000  0.0000000000000000
  0.0000000000000000  0.0000000000000000  0.0000000000000000
  0.0000000000000000  0.0000000000000000  0.0000000000000000
  0.0000000000000000  0.0000000000000000  0.0000000000000000
  0.0000000000000000  0.0000000000000000  0.0000000000000000
  0.0000000000000000  0.0000000000000000  0.0000000000000000
  0.0000000000000000  0.0000000000000000  0.0000000000000000
  0.0000000000000000  0.0000000000000000  0.0000000000000000
  0.0000000000000000  0.0000000000000000  0.0000000000000000
  0.0000000000000000  0.0000000000000000  0.0000000000000000
  0.0000000000000000  0.0000000000000000  0.0000000000000000
  0.0000000000000000  0.0000000000000000  0.0000000000000000
  0.0000000000000000  0.0000000000000000  0.0000000000000000
  0.0000000000000000  0.0000000000000000  0.0000000000000000
  0.0000000000000000  0.0000000000000000  0.0000000000000000
  0.0000000000000000  0.0000000000000000  0.0000000000000000
  0.0000000000000000  0.0000000000000000  0.0000000000000000
  0.0000000000000000  0.0000000000000000  0.0000000000000000
  0.0000000000000000  0.0000000000000000  0.0000000000000000
  0.0000000000000000  0.0000000000000000  0.0000000000000000
  0.0000000000000000  0.0000000000000000  0.0000000000000000
  0.0000000000000000  0.0000000000000000  0.0000000000000000
  0.0000000000000000  0.0000000000000000  0.0000000000000000
  0.0000000000000000  0.0000000000000000  0.0000000000000000
  0.0000000000000000  0.0000000000000000  0.0000000000000000
  0.0000000000000000  0.0000000000000000  0.0000000000000000
  0.0000000000000000  0.0000000000000000  0.0000000000000000
  0.0000000000000000  0.0000000000000000  0.0000000000000000
  0.0000000000000000  0.0000000000000000  0.0000000000000000
  0.0000000000000000  0.0000000000000000  0.0000000000000000
  0.0000000000000000  0.0000000000000000  0.0000000000000000
  0.0000000000000000  0.0000000000000000  0.0000000000000000
  0.0000000000000000  0.0000000000000000  0.0000000000000000
  0.0000000000000000  0.0000000000000000  0.0000000000000000
  0.0000000000000000  0.0000000000000000  0.0000000000000000
  0.0000000000000000  0.0000000000000000  0.0000000000000000
  0.0000000000000000  0.0000000000000000  0.0000000000000000
  0.0000000000000000  0.0000000000000000  0.0000000000000000
  0.0000000000000000  0.0000000000000000  0.0000000000000000
  0.0000000000000000  0.0000000000000000  0.0000000000000000
  0.0000000000000000  0.0000000000000000  0.0000000000000000
  0.0000000000000000  0.0000000000000000  0.0000000000000000
  0.0000000000000000  0.0000000000000000  0.0000000000000000
  0.0000000000000000  0.0000000000000000  0.0000000000000000
  0.0000000000000000  0.0000000000000000  0.0000000000000000
  0.0000000000000000  0.0000000000000000  0.0000000000000000
  0.0000000000000000  0.0000000000000000  0.0000000000000000
  0.0000000000000000  0.0000000000000000  0.0000000000000000
  0.0000000000000000  0.0000000000000000  0.0000000000000000
  0.0000000000000000  0.0000000000000000  0.0000000000000000
  0.0000000000000000  0.0000000000000000  0.0000000000000000
  0.0000000000000000  0.0000000000000000  0.0000000000000000
  0.0000000000000000  0.0000000000000000  0.0000000000000000
  0.0000000000000000  0.0000000000000000  0.0000000000000000
  0.0000000000000000  0.0000000000000000  0.0000000000000000
  0.0000000000000000  0.0000000000000000  0.0000000000000000
  0.0000000000000000  0.0000000000000000  0.0000000000000000
  0.0000000000000000  0.0000000000000000  0.0000000000000000
  0.0000000000000000  0.0000000000000000  0.0000000000000000
  0.0000000000000000  0.0000000000000000  0.0000000000000000
  0.0000000000000000  0.0000000000000000  0.0000000000000000
  0.0000000000000000  0.0000000000000000  0.0000000000000000
  0.0000000000000000  0.0000000000000000  0.0000000000000000
  0.0000000000000000  0.0000000000000000  0.0000000000000000
  0.0000000000000000  0.0000000000000000  0.0000000000000000
  0.0000000000000000  0.0000000000000000  0.0000000000000000
  0.0000000000000000  0.0000000000000000  0.0000000000000000
  0.0000000000000000  0.0000000000000000  0.0000000000000000
  0.0000000000000000  0.0000000000000000  0.0000000000000000
  0.0000000000000000  0.0000000000000000  0.0000000000000000
  0.0000000000000000  0.0000000000000000  0.0000000000000000
  0.0000000000000000  0.0000000000000000  0.0000000000000000
  0.0000000000000000  0.0000000000000000  0.0000000000000000
  0.0000000000000000  0.0000000000000000  0.0000000000000000
  0.0000000000000000  0.0000000000000000  0.0000000000000000
