Pd O                                    
    1.000000000000000     
     4.5740267576254983    0.0000000000000000    0.0000000000000003
     0.0000000000000007    4.5740267576254983    0.0000000000000003
     0.0000000000000000    0.0000000000000000    3.1913858700564970
   Pd   O 
     2     4
Direct
  0.5000000000000000  0.5000000000000000  0.5000000000000000
  1.0000000000000000  0.0000000000000000  1.0000000000000000
  0.8080940518535413  0.1919059481464588  0.5000000000000000
  0.1919059481464588  0.8080940518535413  0.5000000000000000
  0.3080940518535412  0.3080940518535412  0.0000000000000000
  0.6919059481464587  0.6919059481464587  0.0000000000000000
 
  0.00000000E+00  0.00000000E+00  0.00000000E+00
  0.00000000E+00  0.00000000E+00  0.00000000E+00
  0.00000000E+00  0.00000000E+00  0.00000000E+00
  0.00000000E+00  0.00000000E+00  0.00000000E+00
  0.00000000E+00  0.00000000E+00  0.00000000E+00
  0.00000000E+00  0.00000000E+00  0.00000000E+00
