SYSTEM = pddmc PdO2 PBE (no D3)
ENCUT = 520
PREC = Accurate
LASPH = .TRUE.
ADDGRID = .TRUE.
ISPIN = 2
EDIFF = 1e-06
NELM = 200
NELMIN = 5
ALGO = Normal
NCORE = 1
LREAL = .FALSE.
LWAVE = .FALSE.
LCHARG = .FALSE.
LORBIT = 11
ISYM = 2
IBRION = 2
NSW = 200
ISIF = 3
ISMEAR = 0
SIGMA = 0.05
EDIFFG = -0.01
