C  H  O  Pd
 1.0000000000000000
    12.2143708368485502    0.0000000000000000    0.0000000000000007
     0.0000000000000017   10.8116922467861709    0.0000000000000007
     0.0000000000000000    0.0000000000000000   29.2503334901734533
 C   H   O   Pd 
   2   3  50  56
Selective dynamics
Direct
  0.8693427620211461  0.4280347701825609  0.4295633347878207   T   T   T
  0.6073900657481078  0.6901114775970261  0.4157292021190038   T   T   T
  0.7911769118428700  0.4556896608960213  0.4455084984623097   T   T   T
  0.9375009410936074  0.4472121438041491  0.4534175926563822   T   T   T
  0.8812623298819201  0.4822091815421958  0.3976162527315627   T   T   T
  0.5000000000000000  0.1250000000000000  0.1034790374483450   F   F   F
  0.5000000000000000  0.3750000000000000  0.1034790374483450   F   F   F
  0.2499430681443031  0.8741605088293362  0.3145980115233973   T   T   T
  0.2500283591941537  0.6254733786536834  0.2085898099337592   F   F   F
  0.2499797309800775  0.8743459885305133  0.2087681712757579   T   T   T
  0.2500000000000000  0.6250000000000000  0.1034790374483450   F   F   F
  0.2500516249420546  0.6222132707642664  0.3137470945247978   T   T   T
  0.5000000000000000  0.8750000000000001  0.1034790374483450   F   F   F
  0.5000000000000000  0.6250000000000000  0.1034790374483450   F   F   F
  0.4998613925461148  0.8743178440725398  0.2087621655203196   T   T   T
  0.7487804464983878  0.6241278538090996  0.3129567915476465   T   T   T
  0.4999429336759812  0.3743506775830638  0.2088184926078992   T   T   T
  0.7501765072327251  0.8742760797941219  0.3133673205509785   T   T   T
  0.7499670900331520  0.6251669039262319  0.2085882914349509   F   F   F
  0.7500707348098753  0.8744105193974212  0.2085885051769197   F   F   F
  0.7500000000000000  0.6250000000000000  0.1034790374483450   F   F   F
  0.2500000000000000  0.8750000000000001  0.1034790374483450   F   F   F
  0.7500000000000000  0.8750000000000001  0.1034790374483450   F   F   F
  0.6013931622573518  0.6377683751286486  0.4514694676849038   T   T   T
  0.8674981273280528  0.2974432948251891  0.4206421160338334   T   T   T
  0.4999043319361457  0.6253303219183310  0.2084971250327865   F   F   F
  0.4998896289799865  0.1253548101588403  0.2086547316442213   T   T   T
  0.4994459658757102  0.1229932136709621  0.3142533210736502   T   T   T
  0.7499999407901679  0.1253564590539261  0.2086346494759109   T   T   T
  0.5006710800705708  0.3741391030918675  0.3144108382964630   T   T   T
  0.0000000000000000  0.6250000000000000  0.1034790374483450   F   F   F
  0.2482280993143270  0.1239806840154677  0.3145825340963201   T   T   T
  0.7486662037668929  0.3760150935921225  0.3130064523089892   T   T   T
  0.4953959827264116  0.8743181300601555  0.3136302692979472   T   T   T
  0.4968080420822972  0.6222277126386723  0.3128451814321896   T   T   T
  0.7500000000000000  0.3750000000000000  0.1034790374483450   F   F   F
  0.2474935448322900  0.3735823896792206  0.3147706861220578   T   T   T
  0.0000001717890977  0.6253564676804197  0.2086346535078811   T   T   T
  0.9994712694722887  0.8752064817019728  0.3141604898601165   T   T   T
  1.0020195505448350  0.1230461053090503  0.3132771735061419   T   T   T
  0.9984835792711134  0.3758645788823951  0.3134349594186382   T   T   T
 -0.0000661933949340  0.8743568599971405  0.2087563886580954   T   T   T
  0.0000000906673265  0.3746433398517112  0.2086346491200444   T   T   T
  0.2500000000000000  0.3750000000000000  0.1034790374483450   F   F   F
 -0.0000000000000000  0.8750000000000001  0.1034790374483450   F   F   F
  0.2499843376271129  0.3742224809073814  0.2088763896747701   T   T   T
  0.2500000000000000  0.1250000000000000  0.1034790374483450   F   F   F
  0.2500103860985557  0.1254496665261680  0.2087229433656251   T   T   T
  0.0000000000000000  0.3750000000000000  0.1034790374483450   F   F   F
  0.0000000000000000  0.1250000000000000  0.1034790374483450   F   F   F
  0.7500000000000000  0.1250000000000000  0.1034790374483450   F   F   F
  0.7500000113728454  0.3746434304486337  0.2086345460683278   T   T   T
  0.0003392922849551  0.1257186251524735  0.2087505319197434   T   T   T
  0.7448548642352318  0.1217281618433559  0.3125271095064238   T   T   T
 -0.0008832342616291  0.6234685975669829  0.3136616549808908   T   T   T
  0.8741760142244107 -0.0015302127223438  0.3115987278743124   T   T   T
  0.7471686689315994  0.2507146323721223  0.2616833238650713   T   T   T
  0.7506058494521815  0.7492607475022974  0.2617876272902213   T   T   T
  0.8735668748224067  0.5001862565913237  0.3107859601672819   T   T   T
  0.7500001417602953  0.7499994873041090  0.1560720019688409   F   F   F
  0.8750002628252658  0.9999999076726724  0.2083511414037477   F   F   F
  0.7499999492943173  0.2499998973890912  0.1560719005187454   F   F   F
  0.0000000305378639  0.2499999899091724  0.1560719922121782   F   F   F
  0.1250000490227787  0.9999999537391714  0.2083512510515163   F   F   F
  0.1252552440650758  0.9977686287830307  0.3125642931017910   T   T   T
  0.0000000000000000  0.2500000000000000  0.0512814666029016   F   F   F
  0.4840814625235135  0.7454487653364068  0.3752142248488495   T   T   T
  1.0012749099466407  0.2511684433553074  0.2619955564453428   T   T   T
  0.8750003526753075  0.4999998740212845  0.2083512073452132   F   F   F
  0.7500000000000000  0.7500000000000000  0.0512814666029016   F   F   F
  0.8750000000000000  0.5000000000000000  0.1034790374483450   F   F   F
  0.9773167743427459  0.2204585396068872  0.3726893509774031   T   T   T
  0.3733512531557600  1.0007150274376901  0.3126340200027665   T   T   T
  0.6250000282706359  0.5000001736904404  0.2083512799526737   F   F   F
  0.6240495707665998  0.4996975437850761  0.3104612701157197   T   T   T
  0.3750000000000000  0.0000000000000000  0.1034790374483450   F   F   F
  0.8750000000000000  0.0000000000000000  0.1034790374483450   F   F   F
  0.7673225803149366  0.2239167904674308  0.3704088741450123   T   T   T
  0.1250000000000000  0.5000000000000000  0.1034790374483450   F   F   F
  0.4991254237343059  0.2492605218303367  0.2619782078890238   T   T   T
  0.7035971278638841  0.7571548063253227  0.3706095177408931   T   T   T
  0.2500001174677877  0.2500001432992012  0.1560720953180006   F   F   F
  0.5000000000000000  0.2500000000000000  0.0512814666029016   F   F   F
  0.2500000128051262  0.7499998164578953  0.1560720125206892   F   F   F
  0.2105323763780219  0.2466167439748070  0.3684747805346358   T   T   T
  0.2495435684025188  0.2494780044932038  0.2620711015912771   T   T   T
  0.2500000000000000  0.2500000000000000  0.0512814666029016   F   F   F
  0.3750000000000000  0.5000000000000000  0.1034790374483450   F   F   F
  0.3749999192595975  0.4999999237622314  0.2083514410374566   F   F   F
  0.6250000000000000  0.0000000000000000  0.1034790374483450   F   F   F
  0.2500000000000000  0.7500000000000000  0.0512814666029016   F   F   F
  0.4975433479335945  0.7491085428720056  0.2621899770519786   T   T   T
  0.6250001596235294  0.9999998419141339  0.2083511880761280   F   F   F
  0.4999999644933695  0.7499995734433390  0.1560719522146622   F   F   F
  0.1250000000000000  0.0000000000000000  0.1034790374483450   F   F   F
  0.1250001864597102  0.4999997469804928  0.2083513416983053   F   F   F
  0.5000000000000000  0.7500000000000000  0.0512814666029016   F   F   F
 -0.0009282134339214  0.7496890703458594  0.2617627695974027   T   T   T
  0.5435062110396744  0.2459844809573135  0.3676046360836018   T   T   T
  0.1235835396645824  0.4987118630380695  0.3118413589017643   T   T   T
  0.6219079045245619 -0.0037125215957663  0.3114467586118521   T   T   T
  1.0240405142504803  0.7490395945979411  0.3688699352534331   T   T   T
  0.5000000770400611  0.2499999680531972  0.1560718497316933   F   F   F
  0.2500233477814618  0.7493073052322164  0.2621573930825388   T   T   T
  0.0000002340500750  0.7499998236723172  0.1560719263822670   F   F   F
  0.3740715880100723  0.4963163471736609  0.3122601698939967   T   T   T
  0.7500000000000000  0.2500000000000000  0.0512814666029016   F   F   F
  0.2541006781470391  0.7456574788772056  0.3713422789666336   T   T   T
  0.0000000000000000  0.7500000000000000  0.0512814666029016   F   F   F
  0.6250000000000000  0.5000000000000000  0.1034790374483450   F   F   F
  0.3749999766530777  0.0000000103848568  0.2083513401927624   F   F   F
Cartesian
  0.0000000000000000  0.0000000000000000  0.0000000000000000
  0.0000000000000000  0.0000000000000000  0.0000000000000000
  0.0000000000000000  0.0000000000000000  0.0000000000000000
  0.0000000000000000  0.0000000000000000  0.0000000000000000
  0.0000000000000000  0.0000000000000000  0.0000000000000000
  0.0000000000000000  0.0000000000000000  0.0000000000000000
  0.0000000000000000  0.0000000000000000  0.0000000000000000
  0.0000000000000000  0.0000000000000000  0.0000000000000000
  0.0000000000000000  0.0000000000000000  0.0000000000000000
  0.0000000000000000  0.0000000000000000  0.0000000000000000
  0.0000000000000000  0.0000000000000000  0.0000000000000000
  0.0000000000000000  0.0000000000000000  0.0000000000000000
  0.0000000000000000  0.0000000000000000  0.0000000000000000
  0.0000000000000000  0.0000000000000000  0.0000000000000000
  0.0000000000000000  0.0000000000000000  0.0000000000000000
  0.0000000000000000  0.0000000000000000  0.0000000000000000
  0.0000000000000000  0.0000000000000000  0.0000000000000000
  0.0000000000000000  0.0000000000000000  0.0000000000000000
  0.0000000000000000  0.0000000000000000  0.0000000000000000
  0.0000000000000000  0.0000000000000000  0.0000000000000000
  0.0000000000000000  0.0000000000000000  0.0000000000000000
  0.0000000000000000  0.0000000000000000  0.0000000000000000
  0.0000000000000000  0.0000000000000000  0.0000000000000000
  0.0000000000000000  0.0000000000000000  0.0000000000000000
  0.0000000000000000  0.0000000000000000  0.0000000000000000
  0.0000000000000000  0.0000000000000000  0.0000000000000000
  0.0000000000000000  0.0000000000000000  0.0000000000000000
  0.0000000000000000  0.0000000000000000  0.0000000000000000
  0.0000000000000000  0.0000000000000000  0.0000000000000000
  0.0000000000000000  0.0000000000000000  0.0000000000000000
  0.0000000000000000  0.0000000000000000  0.0000000000000000
  0.0000000000000000  0.0000000000000000  0.0000000000000000
  0.0000000000000000  0.0000000000000000  0.0000000000000000
  0.0000000000000000  0.0000000000000000  0.0000000000000000
  0.0000000000000000  0.0000000000000000  0.0000000000000000
  0.0000000000000000  0.0000000000000000  0.0000000000000000
  0.0000000000000000  0.0000000000000000  0.0000000000000000
  0.0000000000000000  0.0000000000000000  0.0000000000000000
  0.0000000000000000  0.0000000000000000  0.0000000000000000
  0.0000000000000000  0.0000000000000000  0.0000000000000000
  0.0000000000000000  0.0000000000000000  0.0000000000000000
  0.0000000000000000  0.0000000000000000  0.0000000000000000
  0.0000000000000000  0.0000000000000000  0.0000000000000000
  0.0000000000000000  0.0000000000000000  0.0000000000000000
  0.0000000000000000  0.0000000000000000  0.0000000000000000
  0.0000000000000000  0.0000000000000000  0.0000000000000000
  0.0000000000000000  0.0000000000000000  0.0000000000000000
  0.0000000000000000  0.0000000000000000  0.0000000000000000
  0.0000000000000000  0.0000000000000000  0.0000000000000000
  0.0000000000000000  0.0000000000000000  0.0000000000000000
  0.0000000000000000  0.0000000000000000  0.0000000000000000
  0.0000000000000000  0.0000000000000000  0.0000000000000000
  0.0000000000000000  0.0000000000000000  0.0000000000000000
  0.0000000000000000  0.0000000000000000  0.0000000000000000
  0.0000000000000000  0.0000000000000000  0.0000000000000000
  0.0000000000000000  0.0000000000000000  0.0000000000000000
  0.0000000000000000  0.0000000000000000  0.0000000000000000
  0.0000000000000000  0.0000000000000000  0.0000000000000000
  0.0000000000000000  0.0000000000000000  0.0000000000000000
  0.0000000000000000  0.0000000000000000  0.0000000000000000
  0.0000000000000000  0.0000000000000000  0.0000000000000000
  0.0000000000000000  0.0000000000000000  0.0000000000000000
  0.0000000000000000  0.0000000000000000  0.0000000000000000
  0.0000000000000000  0.0000000000000000  0.0000000000000000
  0.0000000000000000  0.0000000000000000  0.0000000000000000
  0.0000000000000000  0.0000000000000000  0.0000000000000000
  0.0000000000000000  0.0000000000000000  0.0000000000000000
  0.0000000000000000  0.0000000000000000  0.0000000000000000
  0.0000000000000000  0.0000000000000000  0.0000000000000000
  0.0000000000000000  0.0000000000000000  0.0000000000000000
  0.0000000000000000  0.0000000000000000  0.0000000000000000
  0.0000000000000000  0.0000000000000000  0.0000000000000000
  0.0000000000000000  0.0000000000000000  0.0000000000000000
  0.0000000000000000  0.0000000000000000  0.0000000000000000
  0.0000000000000000  0.0000000000000000  0.0000000000000000
  0.0000000000000000  0.0000000000000000  0.0000000000000000
  0.0000000000000000  0.0000000000000000  0.0000000000000000
  0.0000000000000000  0.0000000000000000  0.0000000000000000
  0.0000000000000000  0.0000000000000000  0.0000000000000000
  0.0000000000000000  0.0000000000000000  0.0000000000000000
  0.0000000000000000  0.0000000000000000  0.0000000000000000
  0.0000000000000000  0.0000000000000000  0.0000000000000000
  0.0000000000000000  0.0000000000000000  0.0000000000000000
  0.0000000000000000  0.0000000000000000  0.0000000000000000
  0.0000000000000000  0.0000000000000000  0.0000000000000000
  0.0000000000000000  0.0000000000000000  0.0000000000000000
  0.0000000000000000  0.0000000000000000  0.0000000000000000
  0.0000000000000000  0.0000000000000000  0.0000000000000000
  0.0000000000000000  0.0000000000000000  0.0000000000000000
  0.0000000000000000  0.0000000000000000  0.0000000000000000
  0.0000000000000000  0.0000000000000000  0.0000000000000000
  0.0000000000000000  0.0000000000000000  0.0000000000000000
  0.0000000000000000  0.0000000000000000  0.0000000000000000
  0.0000000000000000  0.0000000000000000  0.0000000000000000
  0.0000000000000000  0.0000000000000000  0.0000000000000000
  0.0000000000000000  0.0000000000000000  0.0000000000000000
  0.0000000000000000  0.0000000000000000  0.0000000000000000
  0.0000000000000000  0.0000000000000000  0.0000000000000000
  0.0000000000000000  0.0000000000000000  0.0000000000000000
  0.0000000000000000  0.0000000000000000  0.0000000000000000
  0.0000000000000000  0.0000000000000000  0.0000000000000000
  0.0000000000000000  0.0000000000000000  0.0000000000000000
  0.0000000000000000  0.0000000000000000  0.0000000000000000
  0.0000000000000000  0.0000000000000000  0.0000000000000000
  0.0000000000000000  0.0000000000000000  0.0000000000000000
  0.0000000000000000  0.0000000000000000  0.0000000000000000
  0.0000000000000000  0.0000000000000000  0.0000000000000000
  0.0000000000000000  0.0000000000000000  0.0000000000000000
  0.0000000000000000  0.0000000000000000  0.0000000000000000
  0.0000000000000000  0.0000000000000000  0.0000000000000000
  0.0000000000000000  0.0000000000000000  0.0000000000000000
