C  H  O  Pd
 1.0000000000000000
    12.2143708368485502    0.0000000000000000    0.0000000000000007
     0.0000000000000017   10.8116922467861709    0.0000000000000007
     0.0000000000000000    0.0000000000000000   29.2503334901734533
 C   H   O   Pd 
   2   3  50  56
Selective dynamics
Direct
  0.8743199985776064  0.5714752725324517  0.4299126405892436   T   T   T
  1.1383492653243696  0.3158607670515527  0.4160161134676541   T   T   T
  0.9534542724858244  0.5431961748160894  0.4448881066958026   T   T   T
  0.8074139699073809  0.5487995401570733  0.4539718715112153   T   T   T
  0.8614953206208681  0.5202926958855658  0.3973662643563423   T   T   T
  0.5000000000000000  0.1250000000000000  0.1034790374483450   F   F   F
  0.5000000000000000  0.3750000000000000  0.1034790374483450   F   F   F
  0.2480842909657387  0.8768541454933942  0.3144683590205346   T   T   T
  0.2501118898814927  0.6256800604573048  0.2088118716536152   T   T   T
  0.2500683320971786  0.8745543926828381  0.2086859185585385   T   T   T
  0.2500000000000000  0.6250000000000000  0.1034790374483450   F   F   F
  0.2470280456174150  0.6267441204344977  0.3146086332649793   T   T   T
  0.5000000000000000  0.8750000000000001  0.1034790374483450   F   F   F
  0.5000000000000000  0.6250000000000000  0.1034790374483450   F   F   F
  0.4998183222294450  0.8745460840531553  0.2086604601247076   T   T   T
  0.7492023325323589  0.6247384773502341  0.3137215269481117   T   T   T
  0.4998368659877800  0.3744806532197805  0.2086265317614795   F   F   F
  0.7455050686318956  0.8769588465966962  0.3138058655293973   T   T   T
  0.7499831181776746  0.6255462094078557  0.2087491539389718   T   T   T
  0.7497095010491386  0.8743085708823484  0.2087883264796901   T   T   T
  0.7500000000000000  0.6250000000000000  0.1034790374483450   F   F   F
  0.2500000000000000  0.8750000000000001  0.1034790374483450   F   F   F
  0.7500000000000000  0.8750000000000001  0.1034790374483450   F   F   F
  1.1415920204667525  0.3719265146024198  0.4510404104199758   T   T   T
  0.8747291161712294  0.7028936080865563  0.4223987368992936   T   T   T
  0.4997904505349938  0.6257619795800626  0.2088610792470287   T   T   T
  0.4998826823071019  0.1257125678452339  0.2088435920210636   T   T   T
  0.4969925440481168  0.1261525900708955  0.3147283652471299   T   T   T
  0.7499999407901679  0.1253564590539261  0.2086346494759109   T   T   T
  0.4974077699667022  0.3790299576907928  0.3133465279895168   T   T   T
  0.0000000000000000  0.6250000000000000  0.1034790374483450   F   F   F
  0.2517547787782067  0.1262097243852044  0.3138996373650468   T   T   T
  0.7479466084727296  0.3764549611992092  0.3136623974382658   T   T   T
  0.4993165278044426  0.8765379530072754  0.3145451075277794   T   T   T
  0.5006293609977849  0.6271932821727298  0.3150198185482141   T   T   T
  0.7500000000000000  0.3750000000000000  0.1034790374483450   F   F   F
  0.2505236386106240  0.3788111934087583  0.3126238216431156   T   T   T
  0.0000001717890977  0.6253564676804197  0.2086346535078811   T   T   T
  1.0025709616234837  0.8777197278926482  0.3133275150721572   T   T   T
  0.9976445932501942  0.1264636648521646  0.3139543170084991   T   T   T
  0.9987060815537039  0.3761662188226650  0.3131493979069891   T   T   T
  0.0003270448609016  0.8744497097819079  0.2086014085845289   F   F   F
  0.0000000906673265  0.3746433398517112  0.2086346491200444   T   T   T
  0.2500000000000000  0.3750000000000000  0.1034790374483450   F   F   F
 -0.0000000000000000  0.8750000000000001  0.1034790374483450   F   F   F
  0.2501405740804766  0.3745464382141034  0.2085683365934651   F   F   F
  0.2500000000000000  0.1250000000000000  0.1034790374483450   F   F   F
  0.2501378026610221  0.1256298450453657  0.2087759281573605   T   T   T
  0.0000000000000000  0.3750000000000000  0.1034790374483450   F   F   F
  0.0000000000000000  0.1250000000000000  0.1034790374483450   F   F   F
  0.7500000000000000  0.1250000000000000  0.1034790374483450   F   F   F
  0.7500000113728454  0.3746434304486337  0.2086345460683278   F   F   F
 -0.0001988516044848  0.1255799936347137  0.2087129627473224   T   T   T
  0.7483553359808025  0.1252687915841647  0.3143033888666270   T   T   T
 -0.0018737879770144  0.6243515045479948  0.3131789244792144   T   T   T
  0.8736371116745556  0.0019153518625499  0.3119353524906924   T   T   T
  0.7496238862820057  0.2502123206558035  0.2616888140373908   T   T   T
  0.7475370442088272  0.7491319629454730  0.2622674439978606   T   T   T
  0.8737077288009231  0.5001017278786251  0.3109170535796132   T   T   T
  0.7500001417602953  0.7499994873041090  0.1560720019688409   F   F   F
  0.8750002628252658  0.9999999076726724  0.2083511414037477   F   F   F
  0.7499999492943173  0.2499998973890912  0.1560719005187454   F   F   F
  0.0000000305378639  0.2499999899091724  0.1560719922121782   F   F   F
  0.1250000490227787  0.9999999537391714  0.2083512510515163   F   F   F
  0.1253876421546603  1.0036359522063654  0.3117496315526899   T   T   T
  0.0000000000000000  0.2500000000000000  0.0512814666029016   F   F   F
  0.5359239136740804  0.7546536803932656  0.3688799456370157   T   T   T
  0.9984226293176522  0.2507137970980979  0.2620212902230131   T   T   T
  0.8750003526753075  0.4999998740212845  0.2083512073452132   F   F   F
  0.7500000000000000  0.7500000000000000  0.0512814666029016   F   F   F
  0.8750000000000000  0.5000000000000000  0.1034790374483450   F   F   F
  1.0424009827934551  0.2447071992851922  0.3713738800837746   T   T   T
  0.3736938413245878  0.9997067140181686  0.3127349220951980   T   T   T
  0.6250000282706359  0.5000001736904404  0.2083512799526737   F   F   F
  0.6242841717033971  0.5019734562942267  0.3117800158059990   T   T   T
  0.3750000000000000  0.0000000000000000  0.1034790374483450   F   F   F
  0.8750000000000000  0.0000000000000000  0.1034790374483450   F   F   F
  0.7172297235136442  0.2512451894022451  0.3683698312703930   T   T   T
  0.1250000000000000  0.5000000000000000  0.1034790374483450   F   F   F
  0.4983679611929357  0.2508711218500628  0.2621833647467129   T   T   T
  0.7686657838261524  0.7795441270162106  0.3732480264574783   T   T   T
  0.2500001174677877  0.2500001432992012  0.1560720953180006   F   F   F
  0.5000000000000000  0.2500000000000000  0.0512814666029016   F   F   F
  0.2500000128051262  0.7499998164578953  0.1560720125206892   F   F   F
  0.2608228883881470  0.2587849219750583  0.3755286905179120   T   T   T
  0.2510577144079457  0.2508536114269936  0.2622986757151978   T   T   T
  0.2500000000000000  0.2500000000000000  0.0512814666029016   F   F   F
  0.3750000000000000  0.5000000000000000  0.1034790374483450   F   F   F
  0.3749999192595975  0.4999999237622314  0.2083514410374566   F   F   F
  0.6250000000000000  0.0000000000000000  0.1034790374483450   F   F   F
  0.2500000000000000  0.7500000000000000  0.0512814666029016   F   F   F
  0.4992783091875270  0.7507547803852554  0.2621389080733267   T   T   T
  0.6250001596235294  0.9999998419141339  0.2083511880761280   F   F   F
  0.4999999644933695  0.7499995734433390  0.1560719522146622   F   F   F
  0.1250000000000000  0.0000000000000000  0.1034790374483450   F   F   F
  0.1250001864597102  0.4999997469804928  0.2083513416983053   F   F   F
  0.5000000000000000  0.7500000000000000  0.0512814666029016   F   F   F
  0.0012556124992512  0.7493973145999281  0.2619779612602727   T   T   T
  0.4885807648416508  0.2567057490450333  0.3710920145889507   T   T   T
  0.1230700841431080  0.5013597817274957  0.3106265342514619   T   T   T
  0.6222747169168333  0.0023452415508666  0.3126304683472235   T   T   T
  0.9797124301352245  0.7783641846567851  0.3725652570164676   T   T   T
  0.5000000770400611  0.2499999680531972  0.1560718497316933   F   F   F
  0.2495725627957738  0.7507704952262758  0.2620634930226495   T   T   T
  0.0000002340500750  0.7499998236723172  0.1560719263822670   F   F   F
  0.3735326099123314  0.5048055345325125  0.3124177884108599   T   T   T
  0.7500000000000000  0.2500000000000000  0.0512814666029016   F   F   F
  0.2127794060344445  0.7529328603785409  0.3687615691520411   T   T   T
  0.0000000000000000  0.7500000000000000  0.0512814666029016   F   F   F
  0.6250000000000000  0.5000000000000000  0.1034790374483450   F   F   F
  0.3749999766530777  0.0000000103848568  0.2083513401927624   F   F   F
Cartesian
  0.0000000000000000  0.0000000000000000  0.0000000000000000
  0.0000000000000000  0.0000000000000000  0.0000000000000000
  0.0000000000000000  0.0000000000000000  0.0000000000000000
  0.0000000000000000  0.0000000000000000  0.0000000000000000
  0.0000000000000000  0.0000000000000000  0.0000000000000000
  0.0000000000000000  0.0000000000000000  0.0000000000000000
  0.0000000000000000  0.0000000000000000  0.0000000000000000
  0.0000000000000000  0.0000000000000000  0.0000000000000000
  0.0000000000000000  0.0000000000000000  0.0000000000000000
  0.0000000000000000  0.0000000000000000  0.0000000000000000
  0.0000000000000000  0.0000000000000000  0.0000000000000000
  0.0000000000000000  0.0000000000000000  0.0000000000000000
  0.0000000000000000  0.0000000000000000  0.0000000000000000
  0.0000000000000000  0.0000000000000000  0.0000000000000000
  0.0000000000000000  0.0000000000000000  0.0000000000000000
  0.0000000000000000  0.0000000000000000  0.0000000000000000
  0.0000000000000000  0.0000000000000000  0.0000000000000000
  0.0000000000000000  0.0000000000000000  0.0000000000000000
  0.0000000000000000  0.0000000000000000  0.0000000000000000
  0.0000000000000000  0.0000000000000000  0.0000000000000000
  0.0000000000000000  0.0000000000000000  0.0000000000000000
  0.0000000000000000  0.0000000000000000  0.0000000000000000
  0.0000000000000000  0.0000000000000000  0.0000000000000000
  0.0000000000000000  0.0000000000000000  0.0000000000000000
  0.0000000000000000  0.0000000000000000  0.0000000000000000
  0.0000000000000000  0.0000000000000000  0.0000000000000000
  0.0000000000000000  0.0000000000000000  0.0000000000000000
  0.0000000000000000  0.0000000000000000  0.0000000000000000
  0.0000000000000000  0.0000000000000000  0.0000000000000000
  0.0000000000000000  0.0000000000000000  0.0000000000000000
  0.0000000000000000  0.0000000000000000  0.0000000000000000
  0.0000000000000000  0.0000000000000000  0.0000000000000000
  0.0000000000000000  0.0000000000000000  0.0000000000000000
  0.0000000000000000  0.0000000000000000  0.0000000000000000
  0.0000000000000000  0.0000000000000000  0.0000000000000000
  0.0000000000000000  0.0000000000000000  0.0000000000000000
  0.0000000000000000  0.0000000000000000  0.0000000000000000
  0.0000000000000000  0.0000000000000000  0.0000000000000000
  0.0000000000000000  0.0000000000000000  0.0000000000000000
  0.0000000000000000  0.0000000000000000  0.0000000000000000
  0.0000000000000000  0.0000000000000000  0.0000000000000000
  0.0000000000000000  0.0000000000000000  0.0000000000000000
  0.0000000000000000  0.0000000000000000  0.0000000000000000
  0.0000000000000000  0.0000000000000000  0.0000000000000000
  0.0000000000000000  0.0000000000000000  0.0000000000000000
  0.0000000000000000  0.0000000000000000  0.0000000000000000
  0.0000000000000000  0.0000000000000000  0.0000000000000000
  0.0000000000000000  0.0000000000000000  0.0000000000000000
  0.0000000000000000  0.0000000000000000  0.0000000000000000
  0.0000000000000000  0.0000000000000000  0.0000000000000000
  0.0000000000000000  0.0000000000000000  0.0000000000000000
  0.0000000000000000  0.0000000000000000  0.0000000000000000
  0.0000000000000000  0.0000000000000000  0.0000000000000000
  0.0000000000000000  0.0000000000000000  0.0000000000000000
  0.0000000000000000  0.0000000000000000  0.0000000000000000
  0.0000000000000000  0.0000000000000000  0.0000000000000000
  0.0000000000000000  0.0000000000000000  0.0000000000000000
  0.0000000000000000  0.0000000000000000  0.0000000000000000
  0.0000000000000000  0.0000000000000000  0.0000000000000000
  0.0000000000000000  0.0000000000000000  0.0000000000000000
  0.0000000000000000  0.0000000000000000  0.0000000000000000
  0.0000000000000000  0.0000000000000000  0.0000000000000000
  0.0000000000000000  0.0000000000000000  0.0000000000000000
  0.0000000000000000  0.0000000000000000  0.0000000000000000
  0.0000000000000000  0.0000000000000000  0.0000000000000000
  0.0000000000000000  0.0000000000000000  0.0000000000000000
  0.0000000000000000  0.0000000000000000  0.0000000000000000
  0.0000000000000000  0.0000000000000000  0.0000000000000000
  0.0000000000000000  0.0000000000000000  0.0000000000000000
  0.0000000000000000  0.0000000000000000  0.0000000000000000
  0.0000000000000000  0.0000000000000000  0.0000000000000000
  0.0000000000000000  0.0000000000000000  0.0000000000000000
  0.0000000000000000  0.0000000000000000  0.0000000000000000
  0.0000000000000000  0.0000000000000000  0.0000000000000000
  0.0000000000000000  0.0000000000000000  0.0000000000000000
  0.0000000000000000  0.0000000000000000  0.0000000000000000
  0.0000000000000000  0.0000000000000000  0.0000000000000000
  0.0000000000000000  0.0000000000000000  0.0000000000000000
  0.0000000000000000  0.0000000000000000  0.0000000000000000
  0.0000000000000000  0.0000000000000000  0.0000000000000000
  0.0000000000000000  0.0000000000000000  0.0000000000000000
  0.0000000000000000  0.0000000000000000  0.0000000000000000
  0.0000000000000000  0.0000000000000000  0.0000000000000000
  0.0000000000000000  0.0000000000000000  0.0000000000000000
  0.0000000000000000  0.0000000000000000  0.0000000000000000
  0.0000000000000000  0.0000000000000000  0.0000000000000000
  0.0000000000000000  0.0000000000000000  0.0000000000000000
  0.0000000000000000  0.0000000000000000  0.0000000000000000
  0.0000000000000000  0.0000000000000000  0.0000000000000000
  0.0000000000000000  0.0000000000000000  0.0000000000000000
  0.0000000000000000  0.0000000000000000  0.0000000000000000
  0.0000000000000000  0.0000000000000000  0.0000000000000000
  0.0000000000000000  0.0000000000000000  0.0000000000000000
  0.0000000000000000  0.0000000000000000  0.0000000000000000
  0.0000000000000000  0.0000000000000000  0.0000000000000000
  0.0000000000000000  0.0000000000000000  0.0000000000000000
  0.0000000000000000  0.0000000000000000  0.0000000000000000
  0.0000000000000000  0.0000000000000000  0.0000000000000000
  0.0000000000000000  0.0000000000000000  0.0000000000000000
  0.0000000000000000  0.0000000000000000  0.0000000000000000
  0.0000000000000000  0.0000000000000000  0.0000000000000000
  0.0000000000000000  0.0000000000000000  0.0000000000000000
  0.0000000000000000  0.0000000000000000  0.0000000000000000
  0.0000000000000000  0.0000000000000000  0.0000000000000000
  0.0000000000000000  0.0000000000000000  0.0000000000000000
  0.0000000000000000  0.0000000000000000  0.0000000000000000
  0.0000000000000000  0.0000000000000000  0.0000000000000000
  0.0000000000000000  0.0000000000000000  0.0000000000000000
  0.0000000000000000  0.0000000000000000  0.0000000000000000
  0.0000000000000000  0.0000000000000000  0.0000000000000000
  0.0000000000000000  0.0000000000000000  0.0000000000000000
