C  H  O  Pd
 1.0000000000000000
    12.2143708368485502    0.0000000000000000    0.0000000000000007
     0.0000000000000017   10.8116922467861709    0.0000000000000007
     0.0000000000000000    0.0000000000000000   29.2503334901734533
 C   H   O   Pd 
   1   3  49  56
Selective dynamics
Direct
  0.1466923093721116  0.5810715941058453  0.4331333995200404   T   T   T
  0.1401413270185337  0.5235744078653095  0.4017610331044889   T   T   T
  0.2254864151545127  0.5606476977407127  0.4501496233387429   T   T   T
  0.0789044223706111  0.5576674493738607  0.4566256147195327   T   T   T
  0.5000001342961156  0.3746434636837175  0.2086347507080587   T   T   T
  0.5000000000000000  0.1250000000000000  0.1034790374483450   F   F   F
  0.5000000000000000  0.3750000000000000  0.1034790374483450   F   F   F
  0.2585362373565159  0.8771301081452449  0.3122942288513426   T   T   T
  0.2500000941816193  0.6253566118971372  0.2086348636703901   T   T   T
  0.2500000540154024  0.8746433924634129  0.2086348668591089   T   T   T
  0.2500000000000000  0.6250000000000000  0.1034790374483450   F   F   F
  0.2541861498597026  0.6241970533468805  0.3135252650015077   T   T   T
  0.5000000000000000  0.8750000000000001  0.1034790374483450   F   F   F
  0.5000000000000000  0.6250000000000000  0.1034790374483450   F   F   F
  0.4999999845274433  0.6253566050681870  0.2086348949301247   T   T   T
  0.5000001310433297  0.1253564178816644  0.2086348144247711   T   T   T
  0.7556320289467628  0.6253931596058032  0.3148143492994895   T   T   T
  0.7544077267489664  0.8751271180600290  0.3149292127262170   T   T   T
  0.7500001763429768  0.6253564403181003  0.2086347184870002   T   T   T
  0.7500001683851466  0.8746432931424059  0.2086348553162809   T   T   T
  0.7500000000000000  0.6250000000000000  0.1034790374483450   F   F   F
  0.2500000000000000  0.8750000000000001  0.1034790374483450   F   F   F
  0.7500000000000000  0.8750000000000001  0.1034790374483450   F   F   F
  0.1412523686077905  0.7105890289464436  0.4228026737949413   T   T   T
  0.4999998141907326  0.8746432123910085  0.2086349067849812   T   T   T
  0.5045865222013054  0.3766936133292922  0.3142243134142521   T   T   T
  0.5055639053363939  0.1262715949853618  0.3146790144037841   T   T   T
  0.7540068762592486  0.1253694137282288  0.3147566258865547   T   T   T
  0.7499999407901679  0.1253564590539261  0.2086346494759109   F   F   F
  0.7541459647534353  0.3767942506555058  0.3140389823787741   T   T   T
  0.5043793835763380  0.8759991652835359  0.3144303466384338   T   T   T
  0.5030931788311712  0.6257881828137800  0.3149113184544752   T   T   T
  0.7500000000000000  0.3750000000000000  0.1034790374483450   F   F   F
  0.2544039078814136  0.1238757018051874  0.3133390763857692   T   T   T
  0.0000000000000000  0.6250000000000000  0.1034790374483450   F   F   F
  0.0000003093195438  0.8746432006014753  0.2086347012706246   T   T   T
  0.0000001717890977  0.6253564676804197  0.2086346535078811   F   F   F
  1.0014397552690901  0.8756374806464271  0.3137319573915664   T   T   T
  1.0044383484637678  0.1235159990964400  0.3135627242343548   T   T   T
  1.0045353548966436  0.3758073457838532  0.3135631590110960   T   T   T
  0.2544135783508494  0.3763528303886178  0.3136157875999545   T   T   T
  0.0000000906673265  0.3746433398517112  0.2086346491200444   F   F   F
  0.2500000000000000  0.3750000000000000  0.1034790374483450   F   F   F
 -0.0000000000000000  0.8750000000000001  0.1034790374483450   F   F   F
  0.2500001565921251  0.3746432215490525  0.2086349227437580   T   T   T
  0.2500000000000000  0.1250000000000000  0.1034790374483450   F   F   F
  0.2500002121287271  0.1253566769138708  0.2086349069410681   T   T   T
  0.0000000000000000  0.3750000000000000  0.1034790374483450   F   F   F
  0.0000000000000000  0.1250000000000000  0.1034790374483450   F   F   F
  0.7500000000000000  0.1250000000000000  0.1034790374483450   F   F   F
  0.0046397903398458  0.6237556759421833  0.3136228227427833   T   T   T
  0.0000000680918900  0.1253566840092099  0.2086346773957300   T   T   T
  0.7500000113728454  0.3746434304486337  0.2086345460683278   F   F   F
  0.8781011227758619  0.0011491034080455  0.3129062395048015   T   T   T
  0.7513188886627974  0.2503551389528588  0.2619630807650815   T   T   T
  0.7515170569797198  0.7502222521600319  0.2620579246903654   T   T   T
  0.1250000490227787  0.9999999537391714  0.2083512510515163   F   F   F
  0.8797845624241089  0.5001902396962511  0.3117934334213714   T   T   T
  0.8750002628252658  0.9999999076726724  0.2083511414037477   F   F   F
  0.7499999492943173  0.2499998973890912  0.1560719005187454   F   F   F
  0.8750000000000000  0.0000000000000000  0.1034790374483450   F   F   F
  0.0000000305378639  0.2499999899091724  0.1560719922121782   F   F   F
  0.7500001417602953  0.7499994873041090  0.1560720019688409   F   F   F
  0.1295927915011248  1.0002562075901762  0.3114407112119717   T   T   T
  0.3750000000000000  0.0000000000000000  0.1034790374483450   F   F   F
  0.4613716657389393  0.7537132285231611  0.3680370661851328   T   T   T
  1.0018205422122761  0.2497335156665166  0.2616881992018169   T   T   T
  0.8750003526753075  0.4999998740212845  0.2083512073452132   F   F   F
  0.7500000000000000  0.7500000000000000  0.0512814666029016   F   F   F
  0.8750000000000000  0.5000000000000000  0.1034790374483450   F   F   F
  1.0112652701909834  0.2491940689136706  0.3699414363900839   T   T   T
  0.3815236417583025  1.0024701400420755  0.3122763132132620   T   T   T
  0.6250000282706359  0.5000001736904404  0.2083512799526737   F   F   F
  0.6294370837796236  0.5020488148382884  0.3134665269373228   T   T   T
  0.1250000000000000  0.5000000000000000  0.1034790374483450   F   F   F
  0.0000000000000000  0.2500000000000000  0.0512814666029016   F   F   F
  0.7648229897157921  0.2513792427909303  0.3697957991243398   T   T   T
  0.1250000000000000  0.0000000000000000  0.1034790374483450   F   F   F
  0.1292528379810782  0.5004809691474791  0.3112357687207862   T   T   T
  0.0000000000000000  0.7500000000000000  0.0512814666029016   F   F   F
  0.2500001174677877  0.2500001432992012  0.1560720953180006   F   F   F
  0.5000000000000000  0.2500000000000000  0.0512814666029016   F   F   F
  0.2500000128051262  0.7499998164578953  0.1560720125206892   F   F   F
  0.2541047398457679  0.2485134269106328  0.3697869806438946   T   T   T
  0.2523782496855403  0.2501399493956310  0.2616708816869082   T   T   T
  0.2500000000000000  0.2500000000000000  0.0512814666029016   F   F   F
  0.3749999766530777  0.0000000103848568  0.2083513401927624   F   F   F
  0.3749999192595975  0.4999999237622314  0.2083514410374566   F   F   F
  0.6250000000000000  0.0000000000000000  0.1034790374483450   F   F   F
  0.2500000000000000  0.7500000000000000  0.0512814666029016   F   F   F
  0.5033132009778978  0.7499574236280888  0.2619570552953229   T   T   T
  0.6250001596235294  0.9999998419141339  0.2083511880761280   F   F   F
  0.4999999644933695  0.7499995734433390  0.1560719522146622   F   F   F
  0.1250001864597102  0.4999997469804928  0.2083513416983053   F   F   F
  0.6250000000000000  0.5000000000000000  0.1034790374483450   F   F   F
  0.5000000000000000  0.7500000000000000  0.0512814666029016   F   F   F
  0.0002760906228528  0.7483849716193162  0.2621582392552910   T   T   T
  0.4985164350036411  0.2514992923736730  0.3703497109996863   T   T   T
  0.6297159414792260 -0.0000919066617593  0.3139287261678455   T   T   T
  0.5033736597253093  0.2505950317980508  0.2619415284140285   T   T   T
  1.0286631220349420  0.7801736849085794  0.3734352764043933   T   T   T
  0.5000000770400611  0.2499999680531972  0.1560718497316933   F   F   F
  0.2538701864470579  0.7484441709651281  0.2617153151716317   T   T   T
  0.0000002340500750  0.7499998236723172  0.1560719263822670   F   F   F
  0.3790522637840623  0.5005150783477038  0.3119808646436157   T   T   T
  0.7500000000000000  0.2500000000000000  0.0512814666029016   F   F   F
  0.2381345772049268  0.7816391403792421  0.3712258240048013   T   T   T
  0.7991611924393216  0.7517567510661918  0.3677670391073148   T   T   T
  0.3750000000000000  0.5000000000000000  0.1034790374483450   F   F   F
Cartesian
  0.0000000000000000  0.0000000000000000  0.0000000000000000
  0.0000000000000000  0.0000000000000000  0.0000000000000000
  0.0000000000000000  0.0000000000000000  0.0000000000000000
  0.0000000000000000  0.0000000000000000  0.0000000000000000
  0.0000000000000000  0.0000000000000000  0.0000000000000000
  0.0000000000000000  0.0000000000000000  0.0000000000000000
  0.0000000000000000  0.0000000000000000  0.0000000000000000
  0.0000000000000000  0.0000000000000000  0.0000000000000000
  0.0000000000000000  0.0000000000000000  0.0000000000000000
  0.0000000000000000  0.0000000000000000  0.0000000000000000
  0.0000000000000000  0.0000000000000000  0.0000000000000000
  0.0000000000000000  0.0000000000000000  0.0000000000000000
  0.0000000000000000  0.0000000000000000  0.0000000000000000
  0.0000000000000000  0.0000000000000000  0.0000000000000000
  0.0000000000000000  0.0000000000000000  0.0000000000000000
  0.0000000000000000  0.0000000000000000  0.0000000000000000
  0.0000000000000000  0.0000000000000000  0.0000000000000000
  0.0000000000000000  0.0000000000000000  0.0000000000000000
  0.0000000000000000  0.0000000000000000  0.0000000000000000
  0.0000000000000000  0.0000000000000000  0.0000000000000000
  0.0000000000000000  0.0000000000000000  0.0000000000000000
  0.0000000000000000  0.0000000000000000  0.0000000000000000
  0.0000000000000000  0.0000000000000000  0.0000000000000000
  0.0000000000000000  0.0000000000000000  0.0000000000000000
  0.0000000000000000  0.0000000000000000  0.0000000000000000
  0.0000000000000000  0.0000000000000000  0.0000000000000000
  0.0000000000000000  0.0000000000000000  0.0000000000000000
  0.0000000000000000  0.0000000000000000  0.0000000000000000
  0.0000000000000000  0.0000000000000000  0.0000000000000000
  0.0000000000000000  0.0000000000000000  0.0000000000000000
  0.0000000000000000  0.0000000000000000  0.0000000000000000
  0.0000000000000000  0.0000000000000000  0.0000000000000000
  0.0000000000000000  0.0000000000000000  0.0000000000000000
  0.0000000000000000  0.0000000000000000  0.0000000000000000
  0.0000000000000000  0.0000000000000000  0.0000000000000000
  0.0000000000000000  0.0000000000000000  0.0000000000000000
  0.0000000000000000  0.0000000000000000  0.0000000000000000
  0.0000000000000000  0.0000000000000000  0.0000000000000000
  0.0000000000000000  0.0000000000000000  0.0000000000000000
  0.0000000000000000  0.0000000000000000  0.0000000000000000
  0.0000000000000000  0.0000000000000000  0.0000000000000000
  0.0000000000000000  0.0000000000000000  0.0000000000000000
  0.0000000000000000  0.0000000000000000  0.0000000000000000
  0.0000000000000000  0.0000000000000000  0.0000000000000000
  0.0000000000000000  0.0000000000000000  0.0000000000000000
  0.0000000000000000  0.0000000000000000  0.0000000000000000
  0.0000000000000000  0.0000000000000000  0.0000000000000000
  0.0000000000000000  0.0000000000000000  0.0000000000000000
  0.0000000000000000  0.0000000000000000  0.0000000000000000
  0.0000000000000000  0.0000000000000000  0.0000000000000000
  0.0000000000000000  0.0000000000000000  0.0000000000000000
  0.0000000000000000  0.0000000000000000  0.0000000000000000
  0.0000000000000000  0.0000000000000000  0.0000000000000000
  0.0000000000000000  0.0000000000000000  0.0000000000000000
  0.0000000000000000  0.0000000000000000  0.0000000000000000
  0.0000000000000000  0.0000000000000000  0.0000000000000000
  0.0000000000000000  0.0000000000000000  0.0000000000000000
  0.0000000000000000  0.0000000000000000  0.0000000000000000
  0.0000000000000000  0.0000000000000000  0.0000000000000000
  0.0000000000000000  0.0000000000000000  0.0000000000000000
  0.0000000000000000  0.0000000000000000  0.0000000000000000
  0.0000000000000000  0.0000000000000000  0.0000000000000000
  0.0000000000000000  0.0000000000000000  0.0000000000000000
  0.0000000000000000  0.0000000000000000  0.0000000000000000
  0.0000000000000000  0.0000000000000000  0.0000000000000000
  0.0000000000000000  0.0000000000000000  0.0000000000000000
  0.0000000000000000  0.0000000000000000  0.0000000000000000
  0.0000000000000000  0.0000000000000000  0.0000000000000000
  0.0000000000000000  0.0000000000000000  0.0000000000000000
  0.0000000000000000  0.0000000000000000  0.0000000000000000
  0.0000000000000000  0.0000000000000000  0.0000000000000000
  0.0000000000000000  0.0000000000000000  0.0000000000000000
  0.0000000000000000  0.0000000000000000  0.0000000000000000
  0.0000000000000000  0.0000000000000000  0.0000000000000000
  0.0000000000000000  0.0000000000000000  0.0000000000000000
  0.0000000000000000  0.0000000000000000  0.0000000000000000
  0.0000000000000000  0.0000000000000000  0.0000000000000000
  0.0000000000000000  0.0000000000000000  0.0000000000000000
  0.0000000000000000  0.0000000000000000  0.0000000000000000
  0.0000000000000000  0.0000000000000000  0.0000000000000000
  0.0000000000000000  0.0000000000000000  0.0000000000000000
  0.0000000000000000  0.0000000000000000  0.0000000000000000
  0.0000000000000000  0.0000000000000000  0.0000000000000000
  0.0000000000000000  0.0000000000000000  0.0000000000000000
  0.0000000000000000  0.0000000000000000  0.0000000000000000
  0.0000000000000000  0.0000000000000000  0.0000000000000000
  0.0000000000000000  0.0000000000000000  0.0000000000000000
  0.0000000000000000  0.0000000000000000  0.0000000000000000
  0.0000000000000000  0.0000000000000000  0.0000000000000000
  0.0000000000000000  0.0000000000000000  0.0000000000000000
  0.0000000000000000  0.0000000000000000  0.0000000000000000
  0.0000000000000000  0.0000000000000000  0.0000000000000000
  0.0000000000000000  0.0000000000000000  0.0000000000000000
  0.0000000000000000  0.0000000000000000  0.0000000000000000
  0.0000000000000000  0.0000000000000000  0.0000000000000000
  0.0000000000000000  0.0000000000000000  0.0000000000000000
  0.0000000000000000  0.0000000000000000  0.0000000000000000
  0.0000000000000000  0.0000000000000000  0.0000000000000000
  0.0000000000000000  0.0000000000000000  0.0000000000000000
  0.0000000000000000  0.0000000000000000  0.0000000000000000
  0.0000000000000000  0.0000000000000000  0.0000000000000000
  0.0000000000000000  0.0000000000000000  0.0000000000000000
  0.0000000000000000  0.0000000000000000  0.0000000000000000
  0.0000000000000000  0.0000000000000000  0.0000000000000000
  0.0000000000000000  0.0000000000000000  0.0000000000000000
  0.0000000000000000  0.0000000000000000  0.0000000000000000
  0.0000000000000000  0.0000000000000000  0.0000000000000000
  0.0000000000000000  0.0000000000000000  0.0000000000000000
  0.0000000000000000  0.0000000000000000  0.0000000000000000
