O  Pd                                   
    1.000000000000000     
    12.2143708368485502    0.0000000000000000    0.0000000000000007
     0.0000000000000017   10.8116922467861709    0.0000000000000007
     0.0000000000000000    0.0000000000000000   30.4785187739536241
   O    Pd
    48    64
Selective dynamics
Direct
  0.5000054858948777  0.1251140926425071  0.2988193504202173   T   T   T
  0.7500000000000000  0.3750000000000000  0.0993091684361218   F   F   F
  0.4999948333817533  0.6251147718802323  0.2988218142483335   T   T   T
  0.5000004355722296  0.8748776675593153  0.2988231836962102   T   T   T
  0.7499961592968903  0.3748825027632233  0.2988191906001640   T   T   T
  0.2499978468538792  0.1251127457167348  0.2988195066052690   T   T   T
  0.0000000000000000  0.6250000000000000  0.0993091684361218   F   F   F
  0.2499998541441756  0.3748810644520486  0.2988254207519047   T   T   T
  0.9999999581703286  0.8750742642663177  0.1996392178838520   T   T   T
  0.0000005057772318  0.6249244293293094  0.1996391803599140   T   T   T
  0.9999952185372648  0.8748832235458854  0.2988206807184360   T   T   T
  0.9999959928899924  0.1251183888229304  0.2988206064471696   T   T   T
  0.0000006835842760  0.6251120784695161  0.2988178412557336   T   T   T
  0.0000062759083378  0.3748820871853288  0.2988201212297813   T   T   T
  0.0000005214471915  0.3750750452972199  0.1996393296607507   T   T   T
  0.2500000000000000  0.3750000000000000  0.0993091684361218   F   F   F
  0.0000000000000000  0.8750000000000000  0.0993091684361218   F   F   F
  0.2500020462290116  0.3750727500532071  0.1996395889471687   T   T   T
  0.2500000000000000  0.1250000000000000  0.0993091684361218   F   F   F
  0.2499996894110050  0.1249305538511368  0.1996401727287150   T   T   T
  0.0000000000000000  0.3750000000000000  0.0993091684361218   F   F   F
  0.0000000000000000  0.1250000000000000  0.0993091684361218   F   F   F
  0.7500000000000000  0.1250000000000000  0.0993091684361218   F   F   F
  0.7499973604884148  0.3750730023065574  0.1996394471955395   T   T   T
  0.0000024899295648  0.1249261836355936  0.1996392376852127   T   T   T
  0.7499964018244671  0.1251120239671292  0.2988202590989258   T   T   T
  0.7500009855656359  0.1249283534920465  0.1996390512415787   T   T   T
  0.4999975623016700  0.3748821682247043  0.2988234843960629   T   T   T
  0.4999996199152905  0.1249318865018971  0.1996398341995538   T   T   T
  0.4999981045296171  0.3750755890140828  0.1996394883347536   T   T   T
  0.5000000000000000  0.1250000000000000  0.0993091684361218   F   F   F
  0.2500025044663831  0.6251171687666949  0.2988245492586764   T   T   T
  0.2499999599007131  0.8748884737217605  0.2988188311077313   T   T   T
  0.2500004206011834  0.6249293384896726  0.1996395808458757   T   T   T
  0.2500025555172610  0.8750729454870656  0.1996398252537250   T   T   T
  0.2500000000000000  0.6250000000000000  0.0993091684361218   F   F   F
  0.5000000000000000  0.3750000000000000  0.0993091684361218   F   F   F
  0.5000000000000000  0.8750000000000000  0.0993091684361218   F   F   F
  0.7500000000000000  0.8750000000000000  0.0993091684361218   F   F   F
  0.2500000000000000  0.8750000000000000  0.0993091684361218   F   F   F
  0.7500000000000000  0.6250000000000000  0.0993091684361218   F   F   F
  0.7499995612341392  0.8750767166228559  0.1996390277088936   T   T   T
  0.7500004317963871  0.8748813858229030  0.2988236109981648   T   T   T
  0.7499979370822716  0.6249296595557684  0.1996393099384227   T   T   T
  0.7500006265702579  0.6251106267673986  0.2988149212273609   T   T   T
  0.4999986422823571  0.6249290650880238  0.1996394776386614   T   T   T
  0.5000008433798954  0.8750754702850332  0.1996398804637786   T   T   T
  0.5000000000000000  0.6250000000000000  0.0993091684361218   F   F   F
  0.2499980395773029  0.2500020508089149  0.2501574905391688   T   T   T
  0.2500245505464054  0.2499658688316998  0.3564270664034724   T   T   T
  0.5000000000000000  0.2500000000000000  0.0492149901090926   F   F   F
  0.3749738710397105  0.0000193037802303  0.3802673215518236   T   T   T
  0.2499999201581024  0.7499995350680488  0.1494204976283223   T   T   T
  0.2500000000000000  0.7500000000000000  0.0492149901090926   F   F   F
  0.2500000000000000  0.2500000000000000  0.0492149901090926   F   F   F
  0.3749983292086796  0.0000040843124128  0.1996868760808620   T   T   T
  0.3749987427252414  0.5000029909341129  0.1996867263639333   T   T   T
  0.2499999670045434  0.2500010425201992  0.1494207629882204   T   T   T
  0.6250000000000000  0.0000000000000000  0.0993091684361218   F   F   F
  0.2499997607190053  0.7499969992410342  0.2501569794378654   T   T   T
  0.3750000000000000  0.5000000000000000  0.0993091684361218   F   F   F
  0.1248777128497198  0.5000014361692263  0.3802706587235943   T   T   T
  0.4999995105423663  0.2500032438919174  0.2501564419257745   T   T   T
  0.0000002524830492  0.7499999629228579  0.1494205117063931   T   T   T
  0.4999991701321452  0.7500015515122175  0.1494206081244012   T   T   T
  0.1249995840788949  0.4999997300172112  0.1996869669835220   T   T   T
  0.6250000000000000  0.5000000000000000  0.0993091684361218   F   F   F
  0.5000000000000000  0.7500000000000000  0.0492149901090926   F   F   F
  0.9999987675393700  0.7500009290122217  0.2501548071505354   T   T   T
  0.6250061718696901  0.0000402782814238  0.3802689967580475   T   T   T
  0.4999785883552206  0.2499463181359502  0.3564277570259596   T   T   T
  0.1250053708775874  0.5000005446050841  0.2956870456753420   T   T   T
  0.6250044067308610  0.9999916120571508  0.2956857878006349   T   T   T
  0.0000287732252143  0.7499805020741090  0.3564247686290353   T   T   T
  0.6249998520672632  0.0000049536414484  0.1996868372301225   T   T   T
  0.4999997814444782  0.2500016588442237  0.1494206457119761   T   T   T
  0.3749969077923548  0.4999976114562619  0.2956882165103751   T   T   T
  0.5000001223639019  0.7500013359262788  0.2501570727581245   T   T   T
  0.3750000000000000  0.0000000000000000  0.0993091684361218   F   F   F
  0.8750021314125992  0.4999933781133178  0.2956828773106889   T   T   T
  0.3750253032870354  0.5000061766464035  0.3802705105778007   T   T   T
  0.6250978580863367  0.5000796253157433  0.3802690944549443   T   T   T
  0.8749806956726447  0.5000243033333244  0.3802672779707392   T   T   T
  0.0000000000000000  0.7500000000000000  0.0492149901090926   F   F   F
  0.7499727182882986  0.7499098589600489  0.3564241796224059   T   T   T
  0.1250000000000000  0.0000000000000000  0.0993091684361218   F   F   F
  0.7500000000000000  0.2500000000000000  0.0492149901090926   F   F   F
  0.8750000000000000  0.0000000000000000  0.0993091684361218   F   F   F
  0.1250000000000000  0.5000000000000000  0.0993091684361218   F   F   F
  0.1249812632448193  0.9999619996781883  0.3802679423103919   T   T   T
  0.7500000501650002  0.2500013364289667  0.1494203673823759   T   T   T
  0.8750016897480810  0.0000011257499855  0.1996868896228307   T   T   T
  0.7500000669858530  0.7500009688755838  0.1494203905168058   T   T   T
  0.1250026393753039  0.9999981747920996  0.1996871392753272   T   T   T
  0.7500002310924648  0.7500039939891200  0.2501555054400249   T   T   T
  0.7500007210031078  0.2499995605056549  0.2501556219602057   T   T   T
  0.8749973743813119  0.9999963628775530  0.2956863380336200   T   T   T
  0.0000005098911369  0.2500002279199674  0.1494204095276296   T   T   T
  0.1249989797864519  0.0000006644314463  0.2956843293301457   T   T   T
  0.7500112091894667  0.2499812335479475  0.3564254597201134   T   T   T
  0.5000153187414633  0.7499767717969128  0.3564277563878135   T   T   T
  0.8750217320459261  0.0000464704460961  0.3802697166028091   T   T   T
  0.0000011059231512  0.2499997432287417  0.2501558617798177   T   T   T
  0.8750001140590913  0.5000009555390508  0.1996869602448161   T   T   T
  0.7500000000000000  0.7500000000000000  0.0492149901090926   F   F   F
  0.8750000000000000  0.5000000000000000  0.0993091684361218   F   F   F
  0.9999945642220596  0.2500139497357965  0.3564247053782485   T   T   T
  0.3749998576763401  0.9999987849486213  0.2956839538989603   T   T   T
  0.6249979493159372  0.5000037193269909  0.1996866264458949   T   T   T
  0.6249961806721938  0.4999955642133292  0.2956846718710710   T   T   T
  0.2499949697066219  0.7500628841652115  0.3564278139746924   T   T   T
  0.0000000000000000  0.2500000000000000  0.0492149901090926   F   F   F
 
  0.00000000E+00  0.00000000E+00  0.00000000E+00
  0.00000000E+00  0.00000000E+00  0.00000000E+00
  0.00000000E+00  0.00000000E+00  0.00000000E+00
  0.00000000E+00  0.00000000E+00  0.00000000E+00
  0.00000000E+00  0.00000000E+00  0.00000000E+00
  0.00000000E+00  0.00000000E+00  0.00000000E+00
  0.00000000E+00  0.00000000E+00  0.00000000E+00
  0.00000000E+00  0.00000000E+00  0.00000000E+00
  0.00000000E+00  0.00000000E+00  0.00000000E+00
  0.00000000E+00  0.00000000E+00  0.00000000E+00
  0.00000000E+00  0.00000000E+00  0.00000000E+00
  0.00000000E+00  0.00000000E+00  0.00000000E+00
  0.00000000E+00  0.00000000E+00  0.00000000E+00
  0.00000000E+00  0.00000000E+00  0.00000000E+00
  0.00000000E+00  0.00000000E+00  0.00000000E+00
  0.00000000E+00  0.00000000E+00  0.00000000E+00
  0.00000000E+00  0.00000000E+00  0.00000000E+00
  0.00000000E+00  0.00000000E+00  0.00000000E+00
  0.00000000E+00  0.00000000E+00  0.00000000E+00
  0.00000000E+00  0.00000000E+00  0.00000000E+00
  0.00000000E+00  0.00000000E+00  0.00000000E+00
  0.00000000E+00  0.00000000E+00  0.00000000E+00
  0.00000000E+00  0.00000000E+00  0.00000000E+00
  0.00000000E+00  0.00000000E+00  0.00000000E+00
  0.00000000E+00  0.00000000E+00  0.00000000E+00
  0.00000000E+00  0.00000000E+00  0.00000000E+00
  0.00000000E+00  0.00000000E+00  0.00000000E+00
  0.00000000E+00  0.00000000E+00  0.00000000E+00
  0.00000000E+00  0.00000000E+00  0.00000000E+00
  0.00000000E+00  0.00000000E+00  0.00000000E+00
  0.00000000E+00  0.00000000E+00  0.00000000E+00
  0.00000000E+00  0.00000000E+00  0.00000000E+00
  0.00000000E+00  0.00000000E+00  0.00000000E+00
  0.00000000E+00  0.00000000E+00  0.00000000E+00
  0.00000000E+00  0.00000000E+00  0.00000000E+00
  0.00000000E+00  0.00000000E+00  0.00000000E+00
  0.00000000E+00  0.00000000E+00  0.00000000E+00
  0.00000000E+00  0.00000000E+00  0.00000000E+00
  0.00000000E+00  0.00000000E+00  0.00000000E+00
  0.00000000E+00  0.00000000E+00  0.00000000E+00
  0.00000000E+00  0.00000000E+00  0.00000000E+00
  0.00000000E+00  0.00000000E+00  0.00000000E+00
  0.00000000E+00  0.00000000E+00  0.00000000E+00
  0.00000000E+00  0.00000000E+00  0.00000000E+00
  0.00000000E+00  0.00000000E+00  0.00000000E+00
  0.00000000E+00  0.00000000E+00  0.00000000E+00
  0.00000000E+00  0.00000000E+00  0.00000000E+00
  0.00000000E+00  0.00000000E+00  0.00000000E+00
  0.00000000E+00  0.00000000E+00  0.00000000E+00
  0.00000000E+00  0.00000000E+00  0.00000000E+00
  0.00000000E+00  0.00000000E+00  0.00000000E+00
  0.00000000E+00  0.00000000E+00  0.00000000E+00
  0.00000000E+00  0.00000000E+00  0.00000000E+00
  0.00000000E+00  0.00000000E+00  0.00000000E+00
  0.00000000E+00  0.00000000E+00  0.00000000E+00
  0.00000000E+00  0.00000000E+00  0.00000000E+00
  0.00000000E+00  0.00000000E+00  0.00000000E+00
  0.00000000E+00  0.00000000E+00  0.00000000E+00
  0.00000000E+00  0.00000000E+00  0.00000000E+00
  0.00000000E+00  0.00000000E+00  0.00000000E+00
  0.00000000E+00  0.00000000E+00  0.00000000E+00
  0.00000000E+00  0.00000000E+00  0.00000000E+00
  0.00000000E+00  0.00000000E+00  0.00000000E+00
  0.00000000E+00  0.00000000E+00  0.00000000E+00
  0.00000000E+00  0.00000000E+00  0.00000000E+00
  0.00000000E+00  0.00000000E+00  0.00000000E+00
  0.00000000E+00  0.00000000E+00  0.00000000E+00
  0.00000000E+00  0.00000000E+00  0.00000000E+00
  0.00000000E+00  0.00000000E+00  0.00000000E+00
  0.00000000E+00  0.00000000E+00  0.00000000E+00
  0.00000000E+00  0.00000000E+00  0.00000000E+00
  0.00000000E+00  0.00000000E+00  0.00000000E+00
  0.00000000E+00  0.00000000E+00  0.00000000E+00
  0.00000000E+00  0.00000000E+00  0.00000000E+00
  0.00000000E+00  0.00000000E+00  0.00000000E+00
  0.00000000E+00  0.00000000E+00  0.00000000E+00
  0.00000000E+00  0.00000000E+00  0.00000000E+00
  0.00000000E+00  0.00000000E+00  0.00000000E+00
  0.00000000E+00  0.00000000E+00  0.00000000E+00
  0.00000000E+00  0.00000000E+00  0.00000000E+00
  0.00000000E+00  0.00000000E+00  0.00000000E+00
  0.00000000E+00  0.00000000E+00  0.00000000E+00
  0.00000000E+00  0.00000000E+00  0.00000000E+00
  0.00000000E+00  0.00000000E+00  0.00000000E+00
  0.00000000E+00  0.00000000E+00  0.00000000E+00
  0.00000000E+00  0.00000000E+00  0.00000000E+00
  0.00000000E+00  0.00000000E+00  0.00000000E+00
  0.00000000E+00  0.00000000E+00  0.00000000E+00
  0.00000000E+00  0.00000000E+00  0.00000000E+00
  0.00000000E+00  0.00000000E+00  0.00000000E+00
  0.00000000E+00  0.00000000E+00  0.00000000E+00
  0.00000000E+00  0.00000000E+00  0.00000000E+00
  0.00000000E+00  0.00000000E+00  0.00000000E+00
  0.00000000E+00  0.00000000E+00  0.00000000E+00
  0.00000000E+00  0.00000000E+00  0.00000000E+00
  0.00000000E+00  0.00000000E+00  0.00000000E+00
  0.00000000E+00  0.00000000E+00  0.00000000E+00
  0.00000000E+00  0.00000000E+00  0.00000000E+00
  0.00000000E+00  0.00000000E+00  0.00000000E+00
  0.00000000E+00  0.00000000E+00  0.00000000E+00
  0.00000000E+00  0.00000000E+00  0.00000000E+00
  0.00000000E+00  0.00000000E+00  0.00000000E+00
  0.00000000E+00  0.00000000E+00  0.00000000E+00
  0.00000000E+00  0.00000000E+00  0.00000000E+00
  0.00000000E+00  0.00000000E+00  0.00000000E+00
  0.00000000E+00  0.00000000E+00  0.00000000E+00
  0.00000000E+00  0.00000000E+00  0.00000000E+00
  0.00000000E+00  0.00000000E+00  0.00000000E+00
  0.00000000E+00  0.00000000E+00  0.00000000E+00
  0.00000000E+00  0.00000000E+00  0.00000000E+00
  0.00000000E+00  0.00000000E+00  0.00000000E+00
  0.00000000E+00  0.00000000E+00  0.00000000E+00
