O  Pd
 1.0000000000000000
    12.2143708368485502    0.0000000000000000    0.0000000000000007
     0.0000000000000017   10.8116922467861709    0.0000000000000007
     0.0000000000000000    0.0000000000000000   30.4785187739536241
 O   Pd 
  48  64
Selective dynamics
Cartesian
  6.1071678885685241  1.3546094652283720  9.1592559877148307   T   T   T
  9.1607781276364122  4.0543845925448139  3.0267963546061445   F   F   F
  6.1071468891728129  6.7604884149314097  9.1592994483053456   T   T   T
  6.1071624870372343  9.4571217895019206  9.1592678952814950   T   T   T
  9.1607206795653831  4.0512720429719495  9.1592009705041644   T   T   T
  3.0535896289501445  1.3545362413127489  9.1592921748746825   T   T   T
  0.0000000000000011  6.7573076542413570  3.0267963546061436   F   F   F
  3.0535964521007233  4.0511838655652062  9.1593321687152276   T   T   T
 12.2143595478918776  9.4554744155292774  6.1082667539465554   T   T   T
  0.0000038962430645  6.7620549531509448  6.1082808562187934   T   T   T
  0.0000186712192688  9.4571274952830180  9.1592349178203776   T   T   T
  0.0000193459600742  1.3545569431843845  9.1592610504734928   T   T   T
  0.0000435526679336  6.7604384993204052  9.1592330409761953   T   T   T
  0.0000315134079866  4.0512422483631454  9.1592771368619079   T   T   T
  0.0000068430679790  4.0496362640167263  6.1082930444000123   T   T   T
  3.0535927092121380  4.0543845925448139  3.0267963546061436   F   F   F
  0.0000000000000015  9.4602307159379002  3.0267963546061436   F   F   F
  3.0536093398645341  4.0496367100167303  6.1083090756346508   T   T   T
  3.0535927092121375  1.3514615308482714  3.0267963546061436   F   F   F
  3.0535996639929248  1.3561988747845557  6.1082971469938743   T   T   T
  0.0000000000000006  4.0543845925448139  3.0267963546061436   F   F   F
  0.0000000000000002  1.3514615308482714  3.0267963546061436   F   F   F
  9.1607781276364122  1.3514615308482714  3.0267963546061436   F   F   F
  9.1607660090284728  4.0496336506390271  6.1082749631994355   T   T   T
 12.2143584593219732  1.3562167421195719  6.1082796898969596   T   T   T
  9.1607229838090856  1.3545822176176583  9.1592386020983501   T   T   T
  9.1607741175272128  1.3562086463979699  6.1082541967047863   T   T   T
  6.1071631327985347  4.0512202858841402  9.1592362870744601   T   T   T
  6.1072037024115104  1.3562011662156999  6.1082528205805087   T   T   T
  6.1071805282278646  4.0496318279707060  6.1082766873895347   T   T   T
  6.1071854184242751  1.3514615308482714  3.0267963546061436   F   F   F
  3.0535891549830976  6.7604741160701689  9.1592742880380769   T   T   T
  3.0535935674719790  9.4571179466172133  9.1592839048045231   T   T   T
  3.0536109823422373  6.7620524748731201  6.1082904199866350   T   T   T
  3.0536007668256051  9.4554992705307424  6.1082776198971995   T   T   T
  3.0535927092121384  6.7573076542413570  3.0267963546061436   F   F   F
  6.1071854184242760  4.0543845925448139  3.0267963546061436   F   F   F
  6.1071854184242769  9.4602307159379002  3.0267963546061445   F   F   F
  9.1607781276364140  9.4602307159379002  3.0267963546061445   F   F   F
  3.0535927092121389  9.4602307159379002  3.0267963546061445   F   F   F
  9.1607781276364140  6.7573076542413570  3.0267963546061445   F   F   F
  9.1607731872893510  9.4554437333050902  6.1082696984396945   T   T   T
  9.1607783126909936  9.4571546692245239  9.1593036066224318   T   T   T
  9.1607625318920061  6.7620718304254996  6.1082888563128011   T   T   T
  9.1607855869722385  6.7604460022147359  9.1593159358670118   T   T   T
  6.1071832579045076  6.7620580481674519  6.1082862075695932   T   T   T
  6.1071992496027132  9.4554664545798506  6.1082727240747046   T   T   T
  6.1071854184242760  6.7573076542413570  3.0267963546061445   F   F   F
  3.0535843189591767  2.7029217787678346  7.6511355609959422   T   T   T
  3.0535530839654692  2.7030237450555492 10.7501596030931950   T   T   T
  6.1071854184242751  2.7029230616965427  1.5000000000000004   F   F   F
  4.5804489834137305  0.0000215634198784 11.9784984020254353   T   T   T
  3.0535912987796303  8.1087722181346749  4.5657011821754256   T   T   T
  3.0535927092121389  8.1087691850896277  1.5000000000000007   F   F   F
  3.0535927092121380  2.7029230616965427  1.5000000000000002   F   F   F
  4.5803515999793989  0.0000039358490445  6.1211207624596602   T   T   T
  4.5803742010327646  5.4058432803569643  6.1211175864363208   T   T   T
  3.0535919820709685  2.7029236375132792  4.5656997955094720   T   T   T
  7.6339817730303441  0.0000000000000000  3.0267963546061436   F   F   F
  3.0535794132070073  8.1087553743589211  7.6511291916610382   T   T   T
  4.5803890638182070  5.4058461233930855  3.0267963546061436   F   F   F
  1.5257175708709869  5.4057521901376848 11.9785187739536241   T   T   T
  6.1071851344939878  2.7029519868980123  7.6511388438042367   T   T   T
 12.2143706037513358  8.1087806273501251  4.5656895825158514   T   T   T
  6.1071871445280905  8.1087716326866275  4.5657148306352093   T   T   T
  1.5267834784339900  5.4058574269965964  6.1211114604957411   T   T   T
  7.6339817730303450  5.4058461233930855  3.0267963546061445   F   F   F
  6.1071854184242760  8.1087691850896277  1.5000000000000007   F   F   F
  0.0000109427854124  8.1087620491240902  7.6511597270784026   T   T   T
  7.6340935879584464  0.0001599421192636 11.9784574731399793   T   T   T
  6.1072482338238752  2.7029426350786250 10.7502632166174088   T   T   T
  1.5266515208024436  5.4058124679111534  9.1287165792204963   T   T   T
  7.6340756144467159 10.8116674696578592  9.1287143001625317   T   T   T
 12.2143348242391561  8.1087539680810234 10.7503553579011815   T   T   T
  7.6339551319663839 10.8116890958984460  6.1211167971311742   T   T   T
  6.1071871429652944  2.7029184209194455  4.5657089289187383   T   T   T
  4.5803726340525976  5.4058513410385496  9.1287226296185562   T   T   T
  6.1071786841805764  8.1087790142592180  7.6511413077938819   T   T   T
  4.5803890638182061  0.0000000000000000  3.0267963546061436   F   F   F
 10.6876067613050427  5.4058489752822112  9.1287068303964087   T   T   T
  4.5807174118310918  5.4058549691295621 11.9785159620326738   T   T   T
  7.6346494892114052  5.4060313435817191 11.9784928962871149   T   T   T
 10.6876583449424984  5.4059108784054137 11.9784897612345596   T   T   T
  0.0000000000000013  8.1087691850896277  1.5000000000000004   F   F   F
  9.1608320724716030  8.1088159381285081 10.7502679758647517   T   T   T
  1.5267963546060688  0.0000000000000000  3.0267963546061436   F   F   F
  9.1607781276364122  2.7029230616965427  1.5000000000000007   F   F   F
 10.6875744822424821  0.0000000000000000  3.0267963546061436   F   F   F
  1.5267963546060697  5.4058461233930855  3.0267963546061436   F   F   F
  1.5263280809992894 10.8116136075851550 11.9784886066193828   T   T   T
  9.1607819795996157  2.7029125468567554  4.5656809077431788   T   T   T
 10.6876029926783680  0.0000049447576223  6.1211167704940639   T   T   T
  9.1607824292295614  8.1087710581651038  4.5656960571072700   T   T   T
  1.5268372012432296  0.0000114440874619  6.1211216194300508   T   T   T
  9.1607940056673307  8.1087579962548997  7.6511402275354516   T   T   T
  9.1607830694283443  2.7029504437936813  7.6511476792150308   T   T   T
 10.6876347173062811 10.8116853627126286  9.1287067986804651   T   T   T
 12.2143704733599101  2.7029185900408041  4.5656792388497172   T   T   T
  1.5267205574209848  0.0000077219532062  9.1287132871426540   T   T   T
  9.1608118646412660  2.7028844732235102 10.7503728411007220   T   T   T
  6.1072287392887654  8.1087512609621992 10.7501731453049612   T   T   T
 10.6878559395691060  0.0000679060673115 11.9784584961438050   T   T   T
  0.0000033797761185  2.7029203179417718  7.6511523061530440   T   T   T
 10.6875917215406968  5.4058417373142316  6.1211044957883098   T   T   T
  9.1607781276364140  8.1087691850896277  1.5000000000000009   F   F   F
 10.6875744822424821  5.4058461233930855  3.0267963546061445   F   F   F
 12.2143144402080388  2.7029296499842563 10.7502798146271648   T   T   T
  4.5803070320364565 10.8116844674524248  9.1287191436889881   T   T   T
  7.6339999084574188  5.4058270501715304  6.1211038989710991   T   T   T
  7.6341073641553310  5.4058911150626523  9.1287210958264211   T   T   T
  3.0535332868790830  8.1087446583530483 10.7502690387485860   T   T   T
  0.0000000000000004  2.7029230616965427  1.5000000000000000   F   F   F
Cartesian
  0.0000000000000000  0.0000000000000000  0.0000000000000000
  0.0000000000000000  0.0000000000000000  0.0000000000000000
  0.0000000000000000  0.0000000000000000  0.0000000000000000
  0.0000000000000000  0.0000000000000000  0.0000000000000000
  0.0000000000000000  0.0000000000000000  0.0000000000000000
  0.0000000000000000  0.0000000000000000  0.0000000000000000
  0.0000000000000000  0.0000000000000000  0.0000000000000000
  0.0000000000000000  0.0000000000000000  0.0000000000000000
  0.0000000000000000  0.0000000000000000  0.0000000000000000
  0.0000000000000000  0.0000000000000000  0.0000000000000000
  0.0000000000000000  0.0000000000000000  0.0000000000000000
  0.0000000000000000  0.0000000000000000  0.0000000000000000
  0.0000000000000000  0.0000000000000000  0.0000000000000000
  0.0000000000000000  0.0000000000000000  0.0000000000000000
  0.0000000000000000  0.0000000000000000  0.0000000000000000
  0.0000000000000000  0.0000000000000000  0.0000000000000000
  0.0000000000000000  0.0000000000000000  0.0000000000000000
  0.0000000000000000  0.0000000000000000  0.0000000000000000
  0.0000000000000000  0.0000000000000000  0.0000000000000000
  0.0000000000000000  0.0000000000000000  0.0000000000000000
  0.0000000000000000  0.0000000000000000  0.0000000000000000
  0.0000000000000000  0.0000000000000000  0.0000000000000000
  0.0000000000000000  0.0000000000000000  0.0000000000000000
  0.0000000000000000  0.0000000000000000  0.0000000000000000
  0.0000000000000000  0.0000000000000000  0.0000000000000000
  0.0000000000000000  0.0000000000000000  0.0000000000000000
  0.0000000000000000  0.0000000000000000  0.0000000000000000
  0.0000000000000000  0.0000000000000000  0.0000000000000000
  0.0000000000000000  0.0000000000000000  0.0000000000000000
  0.0000000000000000  0.0000000000000000  0.0000000000000000
  0.0000000000000000  0.0000000000000000  0.0000000000000000
  0.0000000000000000  0.0000000000000000  0.0000000000000000
  0.0000000000000000  0.0000000000000000  0.0000000000000000
  0.0000000000000000  0.0000000000000000  0.0000000000000000
  0.0000000000000000  0.0000000000000000  0.0000000000000000
  0.0000000000000000  0.0000000000000000  0.0000000000000000
  0.0000000000000000  0.0000000000000000  0.0000000000000000
  0.0000000000000000  0.0000000000000000  0.0000000000000000
  0.0000000000000000  0.0000000000000000  0.0000000000000000
  0.0000000000000000  0.0000000000000000  0.0000000000000000
  0.0000000000000000  0.0000000000000000  0.0000000000000000
  0.0000000000000000  0.0000000000000000  0.0000000000000000
  0.0000000000000000  0.0000000000000000  0.0000000000000000
  0.0000000000000000  0.0000000000000000  0.0000000000000000
  0.0000000000000000  0.0000000000000000  0.0000000000000000
  0.0000000000000000  0.0000000000000000  0.0000000000000000
  0.0000000000000000  0.0000000000000000  0.0000000000000000
  0.0000000000000000  0.0000000000000000  0.0000000000000000
  0.0000000000000000  0.0000000000000000  0.0000000000000000
  0.0000000000000000  0.0000000000000000  0.0000000000000000
  0.0000000000000000  0.0000000000000000  0.0000000000000000
  0.0000000000000000  0.0000000000000000  0.0000000000000000
  0.0000000000000000  0.0000000000000000  0.0000000000000000
  0.0000000000000000  0.0000000000000000  0.0000000000000000
  0.0000000000000000  0.0000000000000000  0.0000000000000000
  0.0000000000000000  0.0000000000000000  0.0000000000000000
  0.0000000000000000  0.0000000000000000  0.0000000000000000
  0.0000000000000000  0.0000000000000000  0.0000000000000000
  0.0000000000000000  0.0000000000000000  0.0000000000000000
  0.0000000000000000  0.0000000000000000  0.0000000000000000
  0.0000000000000000  0.0000000000000000  0.0000000000000000
  0.0000000000000000  0.0000000000000000  0.0000000000000000
  0.0000000000000000  0.0000000000000000  0.0000000000000000
  0.0000000000000000  0.0000000000000000  0.0000000000000000
  0.0000000000000000  0.0000000000000000  0.0000000000000000
  0.0000000000000000  0.0000000000000000  0.0000000000000000
  0.0000000000000000  0.0000000000000000  0.0000000000000000
  0.0000000000000000  0.0000000000000000  0.0000000000000000
  0.0000000000000000  0.0000000000000000  0.0000000000000000
  0.0000000000000000  0.0000000000000000  0.0000000000000000
  0.0000000000000000  0.0000000000000000  0.0000000000000000
  0.0000000000000000  0.0000000000000000  0.0000000000000000
  0.0000000000000000  0.0000000000000000  0.0000000000000000
  0.0000000000000000  0.0000000000000000  0.0000000000000000
  0.0000000000000000  0.0000000000000000  0.0000000000000000
  0.0000000000000000  0.0000000000000000  0.0000000000000000
  0.0000000000000000  0.0000000000000000  0.0000000000000000
  0.0000000000000000  0.0000000000000000  0.0000000000000000
  0.0000000000000000  0.0000000000000000  0.0000000000000000
  0.0000000000000000  0.0000000000000000  0.0000000000000000
  0.0000000000000000  0.0000000000000000  0.0000000000000000
  0.0000000000000000  0.0000000000000000  0.0000000000000000
  0.0000000000000000  0.0000000000000000  0.0000000000000000
  0.0000000000000000  0.0000000000000000  0.0000000000000000
  0.0000000000000000  0.0000000000000000  0.0000000000000000
  0.0000000000000000  0.0000000000000000  0.0000000000000000
  0.0000000000000000  0.0000000000000000  0.0000000000000000
  0.0000000000000000  0.0000000000000000  0.0000000000000000
  0.0000000000000000  0.0000000000000000  0.0000000000000000
  0.0000000000000000  0.0000000000000000  0.0000000000000000
  0.0000000000000000  0.0000000000000000  0.0000000000000000
  0.0000000000000000  0.0000000000000000  0.0000000000000000
  0.0000000000000000  0.0000000000000000  0.0000000000000000
  0.0000000000000000  0.0000000000000000  0.0000000000000000
  0.0000000000000000  0.0000000000000000  0.0000000000000000
  0.0000000000000000  0.0000000000000000  0.0000000000000000
  0.0000000000000000  0.0000000000000000  0.0000000000000000
  0.0000000000000000  0.0000000000000000  0.0000000000000000
  0.0000000000000000  0.0000000000000000  0.0000000000000000
  0.0000000000000000  0.0000000000000000  0.0000000000000000
  0.0000000000000000  0.0000000000000000  0.0000000000000000
  0.0000000000000000  0.0000000000000000  0.0000000000000000
  0.0000000000000000  0.0000000000000000  0.0000000000000000
  0.0000000000000000  0.0000000000000000  0.0000000000000000
  0.0000000000000000  0.0000000000000000  0.0000000000000000
  0.0000000000000000  0.0000000000000000  0.0000000000000000
  0.0000000000000000  0.0000000000000000  0.0000000000000000
  0.0000000000000000  0.0000000000000000  0.0000000000000000
  0.0000000000000000  0.0000000000000000  0.0000000000000000
  0.0000000000000000  0.0000000000000000  0.0000000000000000
  0.0000000000000000  0.0000000000000000  0.0000000000000000
  0.0000000000000000  0.0000000000000000  0.0000000000000000
