C  H  O  Pd
 1.0000000000000000
    11.0046904376558210    0.0000000000000000    0.0000000000000000
     0.0000000000000000   11.0046904376558210    0.0000000000000000
     0.0000000000000000    0.0000000000000000   27.7814912333251840
 C   H   O   Pd 
   2   3   2  80
Selective dynamics
Direct
  0.6223758210438293  0.4713911838273263  0.3912564844343913   T   T   T
  0.6176978322900991  0.8528700489761049  0.4302455801327062   T   T   T
  0.5423501972500858  0.8352574068355192  0.4556226481773155   T   T   T
  0.6020554705419878  0.9430614250293512  0.4126333165206612   T   T   T
  0.7048176210455364  0.8572674349152507  0.4499865156132398   T   T   T
  0.6216566112309301  0.4547882354077217  0.4335031640845420   T   T   T
  0.6218557609658335  0.7560412042899797  0.3960795000155700   T   T   T
  0.7500000000000000  0.5000000000000000  0.0539927820073487   F   F   F
  0.1250000000000000  0.3750000000000000  0.1240168419828507   F   F   F
  0.8750000000000000  0.1250000000000000  0.1240168419828507   F   F   F
  0.6250000000000001  0.1250000000000000  0.1240168419828507   F   F   F
  0.0000000000000000  0.5000000000000000  0.0539927820073487   F   F   F
  0.2500000000000000  0.0000000000000000  0.0539927820073487   F   F   F
  0.5000000000000000  0.0000000000000000  0.0539927820073487   F   F   F
  0.0000000000000000  0.7500000000000000  0.0539927820073487   F   F   F
  0.7500000000000000  0.0000000000000000  0.0539927820073487   F   F   F
  0.2491617643183646  0.2500573182314688  0.1953410102162459   F   F   F
  0.5000000000000000  0.2500000000000000  0.0539927820073487   F   F   F
  0.7500000000000000  0.2500000000000000  0.0539927820073487   F   F   F
  0.2500000000000000  0.5000000000000000  0.0539927820073487   F   F   F
  0.3750000000000000  0.1250000000000000  0.1240168419828507   F   F   F
  0.5000000000000000  0.5000000000000000  0.0539927820073487   F   F   F
  0.0000000000000000  0.2500000000000000  0.0539927820073487   F   F   F
  0.2500000000000000  0.2500000000000000  0.0539927820073487   F   F   F
 -0.0004292560457248  0.2501605882187187  0.1953824537861924   F   F   F
  0.2500000000000000  0.7500000000000000  0.0539927820073487   F   F   F
  0.7531389504679233  0.7531856986771885  0.3409740118442400   T   T   T
  0.4921937382790183  0.7522259414853369  0.3406509692352200   T   T   T
  0.3750000000000000  0.3750000000000000  0.1240168419828507   F   F   F
  0.6250000000000001  0.3750000000000000  0.1240168419828507   F   F   F
  0.8750000000000000  0.3750000000000000  0.1240168419828507   F   F   F
  0.1250000000000000  0.6250000000000001  0.1240168419828507   F   F   F
  0.3750000000000000  0.6250000000000001  0.1240168419828507   F   F   F
  0.6250000000000001  0.6250000000000001  0.1240168419828507   F   F   F
  0.8750000000000000  0.6250000000000001  0.1240168419828507   F   F   F
  0.1250000000000000  0.8750000000000000  0.1240168419828507   F   F   F
  0.3750000000000000  0.8750000000000000  0.1240168419828507   F   F   F
  0.6250000000000001  0.8750000000000000  0.1240168419828507   F   F   F
  0.8750000000000000  0.8750000000000000  0.1240168419828507   F   F   F
 -0.0001301053492527 -0.0004797787817361  0.1954485861492057   F   F   F
  0.2501345680600640 -0.0001569196165461  0.1954550350067191   T   T   T
  0.7500789861306588 -0.0007325775060948  0.1954819405300850   T   T   T
  0.4996426376703656 -0.0004245549500127  0.1954509999508302   F   F   F
  0.0000000000000000  0.0000000000000000  0.0539927820073487   F   F   F
  0.1250000000000000  0.1250000000000000  0.1240168419828507   F   F   F
  0.2490262815548042  0.5003425206357365  0.1957595413646651   T   T   T
  0.3739957741385410  0.1249809752759281  0.2667430994905436   T   T   T
  0.4989923415171845  0.5004166406478067  0.1955608756775102   T   T   T
  0.7493010761058635  0.5005346206276177  0.1956567213358640   T   T   T
 -0.0008588285148772  0.7495169096867365  0.1955722489370120   T   T   T
  0.2493783746090208  0.7498673223360509  0.1955279669427496   T   T   T
  0.4994366248554598  0.7497489838359672  0.1954401429633296   F   F   F
  0.7494786878683839  0.7492848151803694  0.1954462569959395   F   F   F
  0.8712629069943335  0.6251687547619494  0.2685994713380638   T   T   T
  0.1247457498423998  0.1252018781687470  0.2666446118331918   T   T   T
  0.6232911771754873  0.6255004392282617  0.2676010679153213   T   T   T
  0.8752178100077658  0.1249746739788000  0.2663072040563694   T   T   T
  0.1231725844898665  0.3752723687178512  0.2670948069830166   T   T   T
  0.3735865438045698  0.3760114145371967  0.2670724356798679   T   T   T
  0.6234306448967709  0.3753221586692705  0.2667814291439055   T   T   T
  0.8731644694595281  0.3760017470857435  0.2672412231802635   T   T   T
  0.1229523210801915  0.6249838368982822  0.2672600856097185   T   T   T
  0.3748177310269423  0.6257437006311044  0.2683440392934470   T   T   T
  0.6242496364731107  0.1252099215896858  0.2662335314148208   T   T   T
  0.7500000000000000  0.7500000000000000  0.0539927820073487   F   F   F
  0.3746042318665742  0.8738288621978395  0.2675106474574679   T   T   T
 -0.0002408825406189  0.7503416364492422  0.3389895449092798   T   T   T
  0.4991065445960420  0.2501367866006922  0.1952783195002566   F   F   F
  0.7496881045733664  0.2504213593150635  0.1953149146221106   F   F   F
 -0.0013921477565103  0.5003302870153014  0.1958207967793170   T   T   T
  0.2478459658848597  0.2502229744230941  0.3387412719842036   T   T   T
  0.6241110335948873  0.8744743561954610  0.2670325427500437   T   T   T
  0.8741162699710416  0.8730916881273491  0.2671967843419809   T   T   T
  0.0007907001123629  0.0000107430933614  0.3383127284403366   T   T   T
  0.2496547619407651  0.0008173276287942  0.3387127149550439   T   T   T
  0.2452218326881757  0.7508626398555773  0.3391410133662123   T   T   T
  0.4994825075039174  0.0025690585194299  0.3384064176705537   T   T   T
 -0.0016004730711824  0.2493852109142400  0.3385815500276178   T   T   T
  0.4979716646805415  0.2482061283907431  0.3383406653085128   T   T   T
  0.1245888946551888  0.8750796818485689  0.2666943617018658   T   T   T
  0.7484470003971676  0.2477689776407685  0.3381584841296739   T   T   T
 -0.0020586715581497  0.4995079405154223  0.3391431509404356   T   T   T
  0.2476292411095265  0.5001351933530014  0.3388683012807116   T   T   T
  0.4957406881539554  0.4976235320847928  0.3417268198104532   T   T   T
  0.7496828330645549  0.4976277622473259  0.3420614828662290   T   T   T
  0.7518433336527282  0.0023359864410241  0.3375721034126544   T   T   T
  0.5000000000000000  0.7500000000000000  0.0539927820073487   F   F   F
Cartesian
  0.0000000000000000  0.0000000000000000  0.0000000000000000
  0.0000000000000000  0.0000000000000000  0.0000000000000000
  0.0000000000000000  0.0000000000000000  0.0000000000000000
  0.0000000000000000  0.0000000000000000  0.0000000000000000
  0.0000000000000000  0.0000000000000000  0.0000000000000000
  0.0000000000000000  0.0000000000000000  0.0000000000000000
  0.0000000000000000  0.0000000000000000  0.0000000000000000
  0.0000000000000000  0.0000000000000000  0.0000000000000000
  0.0000000000000000  0.0000000000000000  0.0000000000000000
  0.0000000000000000  0.0000000000000000  0.0000000000000000
  0.0000000000000000  0.0000000000000000  0.0000000000000000
  0.0000000000000000  0.0000000000000000  0.0000000000000000
  0.0000000000000000  0.0000000000000000  0.0000000000000000
  0.0000000000000000  0.0000000000000000  0.0000000000000000
  0.0000000000000000  0.0000000000000000  0.0000000000000000
  0.0000000000000000  0.0000000000000000  0.0000000000000000
  0.0000000000000000  0.0000000000000000  0.0000000000000000
  0.0000000000000000  0.0000000000000000  0.0000000000000000
  0.0000000000000000  0.0000000000000000  0.0000000000000000
  0.0000000000000000  0.0000000000000000  0.0000000000000000
  0.0000000000000000  0.0000000000000000  0.0000000000000000
  0.0000000000000000  0.0000000000000000  0.0000000000000000
  0.0000000000000000  0.0000000000000000  0.0000000000000000
  0.0000000000000000  0.0000000000000000  0.0000000000000000
  0.0000000000000000  0.0000000000000000  0.0000000000000000
  0.0000000000000000  0.0000000000000000  0.0000000000000000
  0.0000000000000000  0.0000000000000000  0.0000000000000000
  0.0000000000000000  0.0000000000000000  0.0000000000000000
  0.0000000000000000  0.0000000000000000  0.0000000000000000
  0.0000000000000000  0.0000000000000000  0.0000000000000000
  0.0000000000000000  0.0000000000000000  0.0000000000000000
  0.0000000000000000  0.0000000000000000  0.0000000000000000
  0.0000000000000000  0.0000000000000000  0.0000000000000000
  0.0000000000000000  0.0000000000000000  0.0000000000000000
  0.0000000000000000  0.0000000000000000  0.0000000000000000
  0.0000000000000000  0.0000000000000000  0.0000000000000000
  0.0000000000000000  0.0000000000000000  0.0000000000000000
  0.0000000000000000  0.0000000000000000  0.0000000000000000
  0.0000000000000000  0.0000000000000000  0.0000000000000000
  0.0000000000000000  0.0000000000000000  0.0000000000000000
  0.0000000000000000  0.0000000000000000  0.0000000000000000
  0.0000000000000000  0.0000000000000000  0.0000000000000000
  0.0000000000000000  0.0000000000000000  0.0000000000000000
  0.0000000000000000  0.0000000000000000  0.0000000000000000
  0.0000000000000000  0.0000000000000000  0.0000000000000000
  0.0000000000000000  0.0000000000000000  0.0000000000000000
  0.0000000000000000  0.0000000000000000  0.0000000000000000
  0.0000000000000000  0.0000000000000000  0.0000000000000000
  0.0000000000000000  0.0000000000000000  0.0000000000000000
  0.0000000000000000  0.0000000000000000  0.0000000000000000
  0.0000000000000000  0.0000000000000000  0.0000000000000000
  0.0000000000000000  0.0000000000000000  0.0000000000000000
  0.0000000000000000  0.0000000000000000  0.0000000000000000
  0.0000000000000000  0.0000000000000000  0.0000000000000000
  0.0000000000000000  0.0000000000000000  0.0000000000000000
  0.0000000000000000  0.0000000000000000  0.0000000000000000
  0.0000000000000000  0.0000000000000000  0.0000000000000000
  0.0000000000000000  0.0000000000000000  0.0000000000000000
  0.0000000000000000  0.0000000000000000  0.0000000000000000
  0.0000000000000000  0.0000000000000000  0.0000000000000000
  0.0000000000000000  0.0000000000000000  0.0000000000000000
  0.0000000000000000  0.0000000000000000  0.0000000000000000
  0.0000000000000000  0.0000000000000000  0.0000000000000000
  0.0000000000000000  0.0000000000000000  0.0000000000000000
  0.0000000000000000  0.0000000000000000  0.0000000000000000
  0.0000000000000000  0.0000000000000000  0.0000000000000000
  0.0000000000000000  0.0000000000000000  0.0000000000000000
  0.0000000000000000  0.0000000000000000  0.0000000000000000
  0.0000000000000000  0.0000000000000000  0.0000000000000000
  0.0000000000000000  0.0000000000000000  0.0000000000000000
  0.0000000000000000  0.0000000000000000  0.0000000000000000
  0.0000000000000000  0.0000000000000000  0.0000000000000000
  0.0000000000000000  0.0000000000000000  0.0000000000000000
  0.0000000000000000  0.0000000000000000  0.0000000000000000
  0.0000000000000000  0.0000000000000000  0.0000000000000000
  0.0000000000000000  0.0000000000000000  0.0000000000000000
  0.0000000000000000  0.0000000000000000  0.0000000000000000
  0.0000000000000000  0.0000000000000000  0.0000000000000000
  0.0000000000000000  0.0000000000000000  0.0000000000000000
  0.0000000000000000  0.0000000000000000  0.0000000000000000
  0.0000000000000000  0.0000000000000000  0.0000000000000000
  0.0000000000000000  0.0000000000000000  0.0000000000000000
  0.0000000000000000  0.0000000000000000  0.0000000000000000
  0.0000000000000000  0.0000000000000000  0.0000000000000000
  0.0000000000000000  0.0000000000000000  0.0000000000000000
  0.0000000000000000  0.0000000000000000  0.0000000000000000
  0.0000000000000000  0.0000000000000000  0.0000000000000000
