O  Pd                                   
    1.000000000000000     
    12.3034736924171124    0.0000000000000000    0.0000000000000000
     0.0000000000000000   12.3034736924171142    0.0000000000000000
     0.0000000000000000    0.0000000000000000   29.1654207465942434
   O    Pd
    16    96
Selective dynamics
Direct
  0.6928273731069435  0.9347858627673212  0.3186284945712668   T   T   T
  0.9400914401279209  0.4319586878477035  0.3189687842739494   T   T   T
  0.9426992331930834  0.1269015668822289  0.3565623589641143   T   T   T
  0.9400860573427516  0.9319577003708494  0.3189711409411471   T   T   T
  0.6912264347339881  0.6287957379384511  0.3571721438298845   T   T   T
  0.4400905683921321  0.9319573473396514  0.3189674287632196   T   T   T
  0.4426956911843509  0.6269036627918284  0.3565634277864015   T   T   T
  0.6928286876824545  0.4347863350824476  0.3186293726369571   T   T   T
  0.9426997172470026  0.6269014722538697  0.3565633783047508   T   T   T
  0.1928305565225976  0.4347827047841636  0.3186311066686998   T   T   T
  0.1912244406274641  0.1287982768685459  0.3571731729489019   T   T   T
  0.1928299210735961  0.9347858588426994  0.3186298229807609   T   T   T
  0.4400826473062812  0.4319596123252361  0.3189701883124282   T   T   T
  0.4426981110944528  0.1269023605548596  0.3565643207915642   T   T   T
  0.1912263560905843  0.6288029104203809  0.3571737076415734   T   T   T
  0.6912272944420436  0.1287960162676445  0.3571718216285306   T   T   T
  0.4500000000000028  0.7500000000000000  0.0514307684100572   F   F   F
  0.4967125130867724  0.6059886005255997  0.2523211246658718   T   T   T
  0.3485320028910852  0.5512631916718084  0.1852336449463447   T   T   T
  0.5000000000000000  0.6000000000000014  0.1181313319610595   F   F   F
  0.5948755410447121  0.2979786628364922  0.2515030813159290   T   T   T
  0.4486122021981009  0.2506766379109669  0.1843629363752118   T   T   T
  0.5499999999999972  0.4500000000000028  0.0514307684100572   F   F   F
  0.6000000000000014  0.7999999999999972  0.1181313319610595   F   F   F
  0.6499999999999986  0.6499999999999986  0.0514307684100572   F   F   F
  0.4486144413896603  0.7506743341769924  0.1843622545089304   T   T   T
  0.6507236918031661  0.6489854869807887  0.1853661340816861   T   T   T
  0.5499999999999972  0.9500000000000028  0.0514307684100572   F   F   F
  0.7000000000000028  0.0000000000000000  0.1181313319610595   F   F   F
  0.5491182374295687  0.9512475927721618  0.1844623188205349   T   T   T
  0.6954860922825779  0.0003910136848519  0.2522650386182280   T   T   T
  0.7999999999999972  0.7000000000000028  0.1181313319610595   F   F   F
  0.6000000000000014  0.2999999999999972  0.1181313319610595   F   F   F
  0.2999999999999972  0.7000000000000028  0.1181313319610595   F   F   F
  0.7974908195827110  0.6996869970667531  0.2552836385328690   T   T   T
  0.7500000000000000  0.8500000000000014  0.0514307684100572   F   F   F
  0.5948753035008308  0.7979760636362584  0.2515015360594771   T   T   T
  0.1499999999999986  0.6499999999999986  0.0514307684100572   F   F   F
  0.9500000000000028  0.7500000000000000  0.0514307684100572   F   F   F
  0.0491177240126065  0.9512405474851491  0.1844615703293516   T   T   T
  0.7000000000000028  0.5000000000000000  0.1181313319610595   F   F   F
  0.5491175178526683  0.4512445656232251  0.1844618875770611   T   T   T
  0.6954861757936766  0.5003895852667261  0.2522663864986594   T   T   T
  0.6499999999999986  0.1499999999999986  0.0514307684100572   F   F   F
  0.7999999999999972  0.2000000000000028  0.1181313319610595   F   F   F
  0.6507246110173562  0.1489888581776777  0.1853660239556655   T   T   T
  0.7974925592071808  0.1996874391713176  0.2552833422770466   T   T   T
  0.7500000000000000  0.3500000000000014  0.0514307684100572   F   F   F
  0.3999999999999986  0.3999999999999986  0.1181313319610595   F   F   F
  0.7499688545785510  0.3493009249718624  0.1855923550188662   T   T   T
  0.3986294755484179  0.4011361187226101  0.2516592847759431   T   T   T
  0.8500000000000014  0.5499999999999972  0.0514307684100572   F   F   F
  0.0000000000000000  0.6000000000000014  0.1181313319610595   F   F   F
  0.8485338373677122  0.5512634687110046  0.1852339858465592   T   T   T
  0.9967151357560053  0.6059918589103975  0.2523208601502800   T   T   T
  0.3999999999999986  0.8999999999999986  0.1181313319610595   F   F   F
  0.1000000000000014  0.7999999999999972  0.1181313319610595   F   F   F
  0.9486106854241280  0.7506756416198153  0.1843625136127240   T   T   T
  0.0948731303159886  0.7979771081766198  0.2515036850470166   T   T   T
  0.0499999999999972  0.9500000000000028  0.0514307684100572   F   F   F
  0.2000000000000028  0.0000000000000000  0.1181313319610595   F   F   F
  0.1954850024588966  0.0003857782159519  0.2522662072291382   T   T   T
  0.7499668075026139  0.8492990416203604  0.1855918419518905   T   T   T
  0.2974906239490187  0.6996844510207175  0.2552844216247222   T   T   T
  0.3500000000000014  0.0499999999999972  0.0514307684100572   F   F   F
  0.8999999999999986  0.3999999999999986  0.1181313319610595   F   F   F
  0.3500000000000014  0.5499999999999972  0.0514307684100572   F   F   F
  0.2974888459330783  0.1996837050030176  0.2552822791927706   T   T   T
  0.1954854277054617  0.5003882131199882  0.2522675496030127   T   T   T
  0.0491193131827514  0.4512444611448465  0.1844626448581111   T   T   T
  0.2000000000000028  0.5000000000000000  0.1181313319610595   F   F   F
  0.0499999999999972  0.4500000000000028  0.0514307684100572   F   F   F
  0.0948732253269552  0.2979770385706613  0.2515035790144930   T   T   T
  0.9486127127564162  0.2506768571014975  0.1843632683220324   T   T   T
  0.5665813641063525  0.5323092082424719  0.3371665358630346   T   T   T
  0.1000000000000014  0.2999999999999972  0.1181313319610595   F   F   F
  0.9967151043797478  0.1059889116525564  0.2523204751230542   T   T   T
  0.8485330413376032  0.0512636254534289  0.1852339871257567   T   T   T
  0.0000000000000000  0.1000000000000014  0.1181313319610595   F   F   F
  0.1499999999999986  0.1499999999999986  0.0514307684100572   F   F   F
  0.8500000000000014  0.0499999999999972  0.0514307684100572   F   F   F
  0.8986311358683582  0.9011364229858103  0.2516594671475115   T   T   T
  0.2499707131254955  0.8492987964248615  0.1855932700389138   T   T   T
  0.2999999999999972  0.2000000000000028  0.1181313319610595   F   F   F
  0.1507236091547503  0.1489864169829936  0.1853656493630883   T   T   T
  0.9500000000000028  0.2500000000000000  0.0514307684100572   F   F   F
  0.0665820387247751  0.0323030436051414  0.3371646194194990   T   T   T
  0.1933299480620475  0.2755085838949926  0.3324041125499554   T   T   T
  0.3169275606647010  0.5344880705672629  0.3369298174554529   T   T   T
  0.5000000000000000  0.1000000000000014  0.1181313319610595   F   F   F
  0.3485341556527256  0.0512641898857512  0.1852337169709379   T   T   T
  0.4967131553121060  0.1059934282627704  0.2523222902854901   T   T   T
  0.4500000000000028  0.2500000000000000  0.0514307684100572   F   F   F
  0.1507252829162628  0.6489864416498848  0.1853659281879895   T   T   T
  0.4419438669716380  0.2711432226076841  0.3295256829990156   T   T   T
  0.2500000000000000  0.8500000000000014  0.0514307684100572   F   F   F
  0.2500000000000000  0.3500000000000014  0.0514307684100572   F   F   F
  0.2499682108142002  0.3493012120833130  0.1855937382329413   T   T   T
  0.8986349749013688  0.4011369234915495  0.2516590218529644   T   T   T
  0.8999999999999986  0.8999999999999986  0.1181313319610595   F   F   F
  0.8169266388518330  0.0344886419676523  0.3369297442209986   T   T   T
  0.5665831341266014  0.0323091093660569  0.3371649899586988   T   T   T
  0.6933272483201933  0.7755154461190030  0.3324040086917119   T   T   T
  0.0665839540494245  0.5323046037453111  0.3371647982730954   T   T   T
  0.4419463394694578  0.7711447218887162  0.3295257570970218   T   T   T
  0.9419446330767124  0.2711450315175720  0.3295252831428298   T   T   T
  0.6933305148159954  0.2755180101471714  0.3324036273750475   T   T   T
  0.8169274265100114  0.5344906303474593  0.3369292384889986   T   T   T
  0.3169303670930591  0.0344856188875101  0.3369297364591519   T   T   T
  0.1933283242016983  0.7755154012927974  0.3324047303332787   T   T   T
  0.3986329644878744  0.9011329092229865  0.2516586033310194   T   T   T
  0.9419439528594995  0.7711448789933495  0.3295255522456976   T   T   T
 
  0.00000000E+00  0.00000000E+00  0.00000000E+00
  0.00000000E+00  0.00000000E+00  0.00000000E+00
  0.00000000E+00  0.00000000E+00  0.00000000E+00
  0.00000000E+00  0.00000000E+00  0.00000000E+00
  0.00000000E+00  0.00000000E+00  0.00000000E+00
  0.00000000E+00  0.00000000E+00  0.00000000E+00
  0.00000000E+00  0.00000000E+00  0.00000000E+00
  0.00000000E+00  0.00000000E+00  0.00000000E+00
  0.00000000E+00  0.00000000E+00  0.00000000E+00
  0.00000000E+00  0.00000000E+00  0.00000000E+00
  0.00000000E+00  0.00000000E+00  0.00000000E+00
  0.00000000E+00  0.00000000E+00  0.00000000E+00
  0.00000000E+00  0.00000000E+00  0.00000000E+00
  0.00000000E+00  0.00000000E+00  0.00000000E+00
  0.00000000E+00  0.00000000E+00  0.00000000E+00
  0.00000000E+00  0.00000000E+00  0.00000000E+00
  0.00000000E+00  0.00000000E+00  0.00000000E+00
  0.00000000E+00  0.00000000E+00  0.00000000E+00
  0.00000000E+00  0.00000000E+00  0.00000000E+00
  0.00000000E+00  0.00000000E+00  0.00000000E+00
  0.00000000E+00  0.00000000E+00  0.00000000E+00
  0.00000000E+00  0.00000000E+00  0.00000000E+00
  0.00000000E+00  0.00000000E+00  0.00000000E+00
  0.00000000E+00  0.00000000E+00  0.00000000E+00
  0.00000000E+00  0.00000000E+00  0.00000000E+00
  0.00000000E+00  0.00000000E+00  0.00000000E+00
  0.00000000E+00  0.00000000E+00  0.00000000E+00
  0.00000000E+00  0.00000000E+00  0.00000000E+00
  0.00000000E+00  0.00000000E+00  0.00000000E+00
  0.00000000E+00  0.00000000E+00  0.00000000E+00
  0.00000000E+00  0.00000000E+00  0.00000000E+00
  0.00000000E+00  0.00000000E+00  0.00000000E+00
  0.00000000E+00  0.00000000E+00  0.00000000E+00
  0.00000000E+00  0.00000000E+00  0.00000000E+00
  0.00000000E+00  0.00000000E+00  0.00000000E+00
  0.00000000E+00  0.00000000E+00  0.00000000E+00
  0.00000000E+00  0.00000000E+00  0.00000000E+00
  0.00000000E+00  0.00000000E+00  0.00000000E+00
  0.00000000E+00  0.00000000E+00  0.00000000E+00
  0.00000000E+00  0.00000000E+00  0.00000000E+00
  0.00000000E+00  0.00000000E+00  0.00000000E+00
  0.00000000E+00  0.00000000E+00  0.00000000E+00
  0.00000000E+00  0.00000000E+00  0.00000000E+00
  0.00000000E+00  0.00000000E+00  0.00000000E+00
  0.00000000E+00  0.00000000E+00  0.00000000E+00
  0.00000000E+00  0.00000000E+00  0.00000000E+00
  0.00000000E+00  0.00000000E+00  0.00000000E+00
  0.00000000E+00  0.00000000E+00  0.00000000E+00
  0.00000000E+00  0.00000000E+00  0.00000000E+00
  0.00000000E+00  0.00000000E+00  0.00000000E+00
  0.00000000E+00  0.00000000E+00  0.00000000E+00
  0.00000000E+00  0.00000000E+00  0.00000000E+00
  0.00000000E+00  0.00000000E+00  0.00000000E+00
  0.00000000E+00  0.00000000E+00  0.00000000E+00
  0.00000000E+00  0.00000000E+00  0.00000000E+00
  0.00000000E+00  0.00000000E+00  0.00000000E+00
  0.00000000E+00  0.00000000E+00  0.00000000E+00
  0.00000000E+00  0.00000000E+00  0.00000000E+00
  0.00000000E+00  0.00000000E+00  0.00000000E+00
  0.00000000E+00  0.00000000E+00  0.00000000E+00
  0.00000000E+00  0.00000000E+00  0.00000000E+00
  0.00000000E+00  0.00000000E+00  0.00000000E+00
  0.00000000E+00  0.00000000E+00  0.00000000E+00
  0.00000000E+00  0.00000000E+00  0.00000000E+00
  0.00000000E+00  0.00000000E+00  0.00000000E+00
  0.00000000E+00  0.00000000E+00  0.00000000E+00
  0.00000000E+00  0.00000000E+00  0.00000000E+00
  0.00000000E+00  0.00000000E+00  0.00000000E+00
  0.00000000E+00  0.00000000E+00  0.00000000E+00
  0.00000000E+00  0.00000000E+00  0.00000000E+00
  0.00000000E+00  0.00000000E+00  0.00000000E+00
  0.00000000E+00  0.00000000E+00  0.00000000E+00
  0.00000000E+00  0.00000000E+00  0.00000000E+00
  0.00000000E+00  0.00000000E+00  0.00000000E+00
  0.00000000E+00  0.00000000E+00  0.00000000E+00
  0.00000000E+00  0.00000000E+00  0.00000000E+00
  0.00000000E+00  0.00000000E+00  0.00000000E+00
  0.00000000E+00  0.00000000E+00  0.00000000E+00
  0.00000000E+00  0.00000000E+00  0.00000000E+00
  0.00000000E+00  0.00000000E+00  0.00000000E+00
  0.00000000E+00  0.00000000E+00  0.00000000E+00
  0.00000000E+00  0.00000000E+00  0.00000000E+00
  0.00000000E+00  0.00000000E+00  0.00000000E+00
  0.00000000E+00  0.00000000E+00  0.00000000E+00
  0.00000000E+00  0.00000000E+00  0.00000000E+00
  0.00000000E+00  0.00000000E+00  0.00000000E+00
  0.00000000E+00  0.00000000E+00  0.00000000E+00
  0.00000000E+00  0.00000000E+00  0.00000000E+00
  0.00000000E+00  0.00000000E+00  0.00000000E+00
  0.00000000E+00  0.00000000E+00  0.00000000E+00
  0.00000000E+00  0.00000000E+00  0.00000000E+00
  0.00000000E+00  0.00000000E+00  0.00000000E+00
  0.00000000E+00  0.00000000E+00  0.00000000E+00
  0.00000000E+00  0.00000000E+00  0.00000000E+00
  0.00000000E+00  0.00000000E+00  0.00000000E+00
  0.00000000E+00  0.00000000E+00  0.00000000E+00
  0.00000000E+00  0.00000000E+00  0.00000000E+00
  0.00000000E+00  0.00000000E+00  0.00000000E+00
  0.00000000E+00  0.00000000E+00  0.00000000E+00
  0.00000000E+00  0.00000000E+00  0.00000000E+00
  0.00000000E+00  0.00000000E+00  0.00000000E+00
  0.00000000E+00  0.00000000E+00  0.00000000E+00
  0.00000000E+00  0.00000000E+00  0.00000000E+00
  0.00000000E+00  0.00000000E+00  0.00000000E+00
  0.00000000E+00  0.00000000E+00  0.00000000E+00
  0.00000000E+00  0.00000000E+00  0.00000000E+00
  0.00000000E+00  0.00000000E+00  0.00000000E+00
  0.00000000E+00  0.00000000E+00  0.00000000E+00
  0.00000000E+00  0.00000000E+00  0.00000000E+00
  0.00000000E+00  0.00000000E+00  0.00000000E+00
  0.00000000E+00  0.00000000E+00  0.00000000E+00
  0.00000000E+00  0.00000000E+00  0.00000000E+00
