O  Pd
 1.0000000000000000
    12.3034736924171124    0.0000000000000000    0.0000000000000000
     0.0000000000000000   12.3034736924171142    0.0000000000000000
     0.0000000000000000    0.0000000000000000   29.1654207465942434
 O   Pd 
  16  96
Selective dynamics
Cartesian
  9.2276052693128356 10.5929896619635642  9.3360500000000002   T   T   T
  0.0000000000000013  4.4412528157550062  9.3360500000000002   T   T   T
  0.0000000000000011  0.6213506673436706 10.6654207465942417   T   T   T
  0.0000000000000013 10.5929896619635642  9.3360500000000002   T   T   T
  9.2276052693128356  6.7730875135522277 10.6654207465942417   T   T   T
  6.1517368462085580 10.5929896619635642  9.3360500000000002   T   T   T
  6.1517368462085580  6.7730875135522277 10.6654207465942417   T   T   T
  9.2276052693128356  4.4412528157550062  9.3360500000000002   T   T   T
  0.0000000000000011  6.7730875135522277 10.6654207465942417   T   T   T
  3.0758684231042794  4.4412528157550062  9.3360500000000002   T   T   T
  3.0758684231042790  0.6213506673436706 10.6654207465942417   T   T   T
  3.0758684231042794 10.5929896619635642  9.3360500000000002   T   T   T
  6.1517368462085580  4.4412528157550062  9.3360500000000002   T   T   T
  6.1517368462085580  0.6213506673436706 10.6654207465942417   T   T   T
  3.0758684231042790  6.7730875135522277 10.6654207465942417   T   T   T
  9.2276052693128356  0.6213506673436706 10.6654207465942417   T   T   T
  5.5365631615877007  9.2276052693128356  1.5000000000000000   F   F   F
  6.1517368462085580  7.3820842154502682  7.3360500000000002   T   T   T
  4.3062157923459896  6.7669105308294135  5.3906999999999989   T   T   T
  6.1517368462085580  7.3820842154502682  3.4453499999999995   F   F   F
  7.3820842154502655  3.6910421077251327  7.3360500000000002   T   T   T
  5.5365631615877007  3.0758684231042794  5.3906999999999989   T   T   T
  6.7669105308294126  5.5365631615877016  1.5000000000000000   F   F   F
  7.3820842154502655  9.8427789539336903  3.4453499999999995   F   F   F
  7.9972579000711237  7.9972579000711246  1.5000000000000000   F   F   F
  5.5365631615877007  9.2276052693128356  5.3906999999999989   T   T   T
  7.9972579000711237  7.9972579000711246  5.3906999999999989   T   T   T
  6.7669105308294109 11.6883000077962578  1.5000000000000000   F   F   F
  8.6124315846919792  0.0000000000000007  3.4453499999999995   F   F   F
  6.7669105308294109 11.6883000077962578  5.3906999999999989   T   T   T
  8.6124315846919792  0.0000000000000007  7.3360500000000002   T   T   T
  9.8427789539336921  8.6124315846919810  3.4453499999999995   F   F   F
  7.3820842154502655  3.6910421077251327  3.4453499999999995   F   F   F
  3.6910421077251350  8.6124315846919792  3.4453499999999995   F   F   F
  9.8427789539336921  8.6124315846919810  7.3360500000000002   T   T   T
  9.2276052693128356 10.4579526385545485  1.5000000000000000   F   F   F
  7.3820842154502655  9.8427789539336903  7.3360500000000002   T   T   T
  1.8455210538625693  7.9972579000711246  1.5000000000000000   F   F   F
 11.6883000077962578  9.2276052693128356  1.5000000000000000   F   F   F
  0.6151736846208569 11.6883000077962578  5.3906999999999989   T   T   T
  8.6124315846919792  6.1517368462085589  3.4453499999999995   F   F   F
  6.7669105308294126  5.5365631615877016  5.3906999999999989   T   T   T
  8.6124315846919792  6.1517368462085589  7.3360500000000002   T   T   T
  7.9972579000711237  1.8455210538625668  1.5000000000000000   F   F   F
  9.8427789539336921  2.4606947384834230  3.4453499999999995   F   F   F
  7.9972579000711237  1.8455210538625668  5.3906999999999989   T   T   T
  9.8427789539336921  2.4606947384834230  7.3360500000000002   T   T   T
  9.2276052693128339  4.3062157923459887  1.5000000000000000   F   F   F
  4.9213894769668451  4.9213894769668478  3.4453499999999995   F   F   F
  9.2276052693128339  4.3062157923459887  5.3906999999999989   T   T   T
  4.9213894769668451  4.9213894769668478  7.3360500000000002   T   T   T
 10.4579526385545449  6.7669105308294135  1.5000000000000000   F   F   F
  0.0000000000000035  7.3820842154502682  3.4453499999999995   F   F   F
 10.4579526385545449  6.7669105308294135  5.3906999999999989   T   T   T
  0.0000000000000035  7.3820842154502682  7.3360500000000002   T   T   T
  4.9213894769668451 11.0731263231754049  3.4453499999999995   F   F   F
  1.2303473692417102  9.8427789539336903  3.4453499999999995   F   F   F
 11.6883000077962578  9.2276052693128356  5.3906999999999989   T   T   T
  1.2303473692417102  9.8427789539336903  7.3360500000000002   T   T   T
  0.6151736846208569 11.6883000077962578  1.5000000000000000   F   F   F
  2.4606947384834252  0.0000000000000007  3.4453499999999995   F   F   F
  2.4606947384834252  0.0000000000000007  7.3360500000000002   T   T   T
  9.2276052693128356 10.4579526385545485  5.3906999999999989   T   T   T
  3.6910421077251350  8.6124315846919792  7.3360500000000002   T   T   T
  4.3062157923459896  0.6151736846208542  1.5000000000000000   F   F   F
 11.0731263231753996  4.9213894769668451  3.4453499999999995   F   F   F
  4.3062157923459896  6.7669105308294135  1.5000000000000000   F   F   F
  3.6910421077251350  2.4606947384834230  7.3360500000000002   T   T   T
  2.4606947384834252  6.1517368462085589  7.3360500000000002   T   T   T
  0.6151736846208541  5.5365631615876962  5.3906999999999989   T   T   T
  2.4606947384834252  6.1517368462085589  3.4453499999999995   F   F   F
  0.6151736846208541  5.5365631615876962  1.5000000000000000   F   F   F
  1.2303473692417102  3.6910421077251327  7.3360500000000002   T   T   T
 11.6883000077962578  3.0758684231042763  5.3906999999999989   T   T   T
  7.6896710577606964  5.6071701646536161 10.0007353732971218   T   T   T
  1.2303473692417102  3.6910421077251327  3.4453499999999995   F   F   F
  0.0000000000000035  1.2303473692417104  7.3360500000000002   T   T   T
 10.4579526385545449  0.6151736846208542  5.3906999999999989   T   T   T
  0.0000000000000035  1.2303473692417104  3.4453499999999995   F   F   F
  1.8455210538625664  1.8455210538625668  1.5000000000000000   F   F   F
 10.4579526385545449  0.6151736846208542  1.5000000000000000   F   F   F
 11.0731263231754014 11.0731263231754049  7.3360500000000002   T   T   T
  3.0758684231042790 10.4579526385545485  5.3906999999999989   T   T   T
  3.6910421077251350  2.4606947384834230  3.4453499999999995   F   F   F
  1.8455210538625664  1.8455210538625668  5.3906999999999989   T   T   T
 11.6883000077962578  3.0758684231042763  1.5000000000000000   F   F   F
  1.5379342115521402 11.7589070108621740 10.0007353732971218   T   T   T
  3.0758684231042794  2.5313017415493375 10.0007353732971218   T   T   T
  4.6138026346564187  5.6071701646536161 10.0007353732971218   T   T   T
  6.1517368462085580  1.2303473692417104  3.4453499999999995   F   F   F
  4.3062157923459896  0.6151736846208542  5.3906999999999989   T   T   T
  6.1517368462085580  1.2303473692417104  7.3360500000000002   T   T   T
  5.5365631615877007  3.0758684231042794  1.5000000000000000   F   F   F
  1.8455210538625693  7.9972579000711246  5.3906999999999989   T   T   T
  6.1517368462085580  2.5313017415493375 10.0007353732971218   T   T   T
  3.0758684231042790 10.4579526385545485  1.5000000000000000   F   F   F
  3.0758684231042790  4.3062157923459887  1.5000000000000000   F   F   F
  3.0758684231042790  4.3062157923459887  5.3906999999999989   T   T   T
 11.0731263231753996  4.9213894769668451  7.3360500000000002   T   T   T
 11.0731263231754014 11.0731263231754049  3.4453499999999995   F   F   F
 10.7655394808649731 11.7589070108621740 10.0007353732971218   T   T   T
  7.6896710577606964 11.7589070108621740 10.0007353732971218   T   T   T
  9.2276052693128356  8.6830385877578955 10.0007353732971218   T   T   T
  1.5379342115521402  5.6071701646536161 10.0007353732971218   T   T   T
  6.1517368462085580  8.6830385877578955 10.0007353732971218   T   T   T
  0.0000000000000012  2.5313017415493375 10.0007353732971218   T   T   T
  9.2276052693128356  2.5313017415493375 10.0007353732971218   T   T   T
 10.7655394808649731  5.6071701646536161 10.0007353732971218   T   T   T
  4.6138026346564187 11.7589070108621740 10.0007353732971218   T   T   T
  3.0758684231042794  8.6830385877578955 10.0007353732971218   T   T   T
  4.9213894769668451 11.0731263231754049  7.3360500000000002   T   T   T
  0.0000000000000012  8.6830385877578955 10.0007353732971218   T   T   T
