O  Pd
 1.0000000000000000
    11.0054099423874252    5.5027049711937126    0.0000000000000000
    -5.5027049711937126   11.0054099423874252    0.0000000000000000
     0.0000000000000000    0.0000000000000000   27.1952408182891432
 O   Pd 
  16  96
Selective dynamics
Cartesian
 -0.5214515395232895  1.0429030790465790 10.2011852045722851   T   T   T
  3.9383503526238441 12.7584429367287342 11.5305556137168548   T   T   T
  1.1869978670269867 11.3827666939303054 11.5305556137168548   T   T   T
  4.9812534316704227 10.6726367786355780 10.2011852045722851   T   T   T
 -1.5643546185698687 10.0070904511318783 11.5305556137168548   T   T   T
 -4.3157071041667248  8.6314142083334495 11.5305556137168548   T   T   T
 -0.5214515395232894  7.9212842930387195 10.2011852045722851   T   T   T
 -3.2728040251201458  6.5456080502402916 10.2011852045722851   T   T   T
  2.2299009460735659  9.2969605358371474 10.2011852045722851   T   T   T
  3.9383503526238428  5.8800617227365937 11.5305556137168548   T   T   T
  7.7326059172672803  5.1699318074418628 10.2011852045722851   T   T   T
  4.9812534316704218  3.7942555646434348 10.2011852045722851   T   T   T
  1.1869978670269876  4.5043854799381657 11.5305556137168548   T   T   T
 -1.5643546185698687  3.1287092371397374 11.5305556137168548   T   T   T
  2.2299009460735668  2.4185793218450069 10.2011852045722851   T   T   T
  6.6897028382207004  7.2557379655350225 11.5305556137168548   T   T   T
  5.5027049711937135  8.2540574567905711  3.4454999999999996   F   F   F
  6.8783812139921432  9.6297336995889999  5.3910000000000018   T   T   T
  5.5027049711937135  8.2540574567905711  7.3364999999999982   T   T   T
  6.8783812139921432 12.3810861851858576  1.5000000000000000   F   F   F
  5.5027049711937144 11.0054099423874305  7.3364999999999982   T   T   T
  6.8783812139921432 12.3810861851858576  5.3910000000000018   T   T   T
 -4.1270287283952820  9.6297336995890017  1.5000000000000000   F   F   F
  6.8783812139921432  9.6297336995889999  1.5000000000000000   F   F   F
  5.5027049711937144 11.0054099423874305  3.4454999999999996   F   F   F
  5.5027049711937144  5.5027049711937144  7.3364999999999982   T   T   T
  2.7513524855968585 13.7567624279842864  7.3364999999999982   T   T   T
  5.5027049711937144  5.5027049711937144  3.4454999999999996   F   F   F
  6.8783812139921423  6.8783812139921423  1.5000000000000000   F   F   F
  5.5027049711937117  2.7513524855968559  7.3364999999999982   T   T   T
  6.8783812139921423  4.1270287283952847  5.3910000000000018   T   T   T
  5.5027049711937117  2.7513524855968559  3.4454999999999996   F   F   F
  6.8783812139921423  4.1270287283952847  1.5000000000000000   F   F   F
  5.5027049711937162 13.7567624279842846  3.4454999999999996   F   F   F
  4.1270287283952856 15.1324386707827152  5.3910000000000018   T   T   T
  2.7513524855968585 13.7567624279842864  3.4454999999999996   F   F   F
  6.8783812139921423  6.8783812139921423  5.3910000000000018   T   T   T
 -4.1270287283952820  9.6297336995890017  5.3910000000000018   T   T   T
 -1.3756762427984250  4.1270287283952873  5.3910000000000018   T   T   T
  9.6297336995890017  6.8783812139921432  1.5000000000000000   F   F   F
  6.8783812139921414 10.3175718209882135  9.5364999999999984   T   T   T
  4.1270287283952847  8.9418955781897829  9.5364999999999984   T   T   T
 -0.7101299152947299  8.2986410445816006 12.1952408182891414   T   T   T
 -3.4614824008915863  6.9229648017831726 12.1952408182891414   T   T   T
  1.3756762427984286  7.5662193353913541  9.5364999999999984   T   T   T
 -1.3756762427984282  6.1905430925929279  9.5364999999999984   T   T   T
  7.5439275414958393  5.5472885589847447 12.1952408182891414   T   T   T
  4.7925750558989817  4.1716123161863159 12.1952408182891414   T   T   T
  9.6297336995889964  4.8148668497944982  9.5364999999999984   T   T   T
  6.8783812139921405  3.4391906069960703  9.5364999999999984   T   T   T
  2.0412225703021263  2.7959360733878880 12.1952408182891414   T   T   T
 -0.7101299152947299  1.4202598305894598 12.1952408182891414   T   T   T
  4.1270287283952847  2.0635143641976423  9.5364999999999984   T   T   T
  1.3756762427984282  0.6878381213992141  9.5364999999999984   T   T   T
  8.2540574567905729  8.2540574567905729  7.3364999999999982   T   T   T
  4.1270287283952856 15.1324386707827152  1.5000000000000000   F   F   F
  8.2540574567905729  8.2540574567905729  3.4454999999999996   F   F   F
 -1.3756762427984250  4.1270287283952873  1.5000000000000000   F   F   F
  8.2540574567905729  5.5027049711937144  7.3364999999999982   T   T   T
  9.6297336995890017  6.8783812139921432  5.3910000000000018   T   T   T
  8.2540574567905729  5.5027049711937144  3.4454999999999996   F   F   F
  5.5027049711937162 13.7567624279842846  7.3364999999999982   T   T   T
  2.7513524855968572 11.0054099423874288  7.3364999999999982   T   T   T
  2.7513524855968572  5.5027049711937153  7.3364999999999982   T   T   T
  2.7513524855968572 11.0054099423874288  3.4454999999999996   F   F   F
  0.0000000000000002  2.7513524855968567  7.3364999999999982   T   T   T
  1.3756762427984284  4.1270287283952856  5.3910000000000018   T   T   T
  0.0000000000000002  2.7513524855968567  3.4454999999999996   F   F   F
  1.3756762427984284  4.1270287283952856  1.5000000000000000   F   F   F
  0.0000000000000000  0.0000000000000000  7.3364999999999982   T   T   T
  1.3756762427984284  1.3756762427984284  5.3910000000000018   T   T   T
  0.0000000000000000  0.0000000000000000  3.4454999999999996   F   F   F
  1.3756762427984284  1.3756762427984284  1.5000000000000000   F   F   F
 -2.7513524855968567 11.0054099423874288  7.3364999999999982   T   T   T
  1.3756762427984293  6.8783812139921432  1.5000000000000000   F   F   F
 -1.3756762427984273 12.3810861851858558  5.3910000000000018   T   T   T
 -1.3756762427984273 12.3810861851858558  1.5000000000000000   F   F   F
 -2.7513524855968572  8.2540574567905711  7.3364999999999982   T   T   T
 -1.3756762427984290  9.6297336995889999  5.3910000000000018   T   T   T
 -2.7513524855968572  8.2540574567905711  3.4454999999999996   F   F   F
 -1.3756762427984290  9.6297336995889999  1.5000000000000000   F   F   F
 -2.7513524855968559  5.5027049711937117  7.3364999999999982   T   T   T
 -1.3756762427984282  6.8783812139921432  5.3910000000000018   T   T   T
 -2.7513524855968559  5.5027049711937117  3.4454999999999996   F   F   F
 -1.3756762427984282  6.8783812139921432  1.5000000000000000   F   F   F
 -2.7513524855968567 11.0054099423874288  3.4454999999999996   F   F   F
  0.0000000000000005  5.5027049711937135  3.4454999999999996   F   F   F
  1.3756762427984293  6.8783812139921432  5.3910000000000018   T   T   T
  0.0000000000000005  5.5027049711937135  7.3364999999999982   T   T   T
  4.1270287283952847 12.3810861851858576  1.5000000000000000   F   F   F
  2.7513524855968563  8.2540574567905658  7.3364999999999982   T   T   T
  4.1270287283952856  9.6297336995889982  5.3910000000000018   T   T   T
  2.7513524855968563  8.2540574567905658  3.4454999999999996   F   F   F
  4.1270287283952856  9.6297336995889982  1.5000000000000000   F   F   F
  2.0412225703021267  9.6743172873800312 12.1952408182891414   T   T   T
  4.1270287283952856  6.8783812139921423  5.3910000000000018   T   T   T
  2.7513524855968572  5.5027049711937153  3.4454999999999996   F   F   F
  4.1270287283952856  6.8783812139921423  1.5000000000000000   F   F   F
  2.7513524855968572  2.7513524855968572  7.3364999999999982   T   T   T
  4.1270287283952864  4.1270287283952864  5.3910000000000018   T   T   T
  2.7513524855968572  2.7513524855968572  3.4454999999999996   F   F   F
  4.1270287283952864  4.1270287283952864  1.5000000000000000   F   F   F
  0.0000000000000009 11.0054099423874270  7.3364999999999982   T   T   T
  1.3756762427984284 12.3810861851858558  5.3910000000000018   T   T   T
  0.0000000000000009 11.0054099423874270  3.4454999999999996   F   F   F
  1.3756762427984284 12.3810861851858558  1.5000000000000000   F   F   F
 -0.0000000000000002  8.2540574567905711  7.3364999999999982   T   T   T
  1.3756762427984290  9.6297336995890017  5.3910000000000018   T   T   T
 -0.0000000000000002  8.2540574567905711  3.4454999999999996   F   F   F
  1.3756762427984290  9.6297336995890017  1.5000000000000000   F   F   F
  4.1270287283952847 12.3810861851858576  5.3910000000000018   T   T   T
  4.7925750558989826 11.0499935301784582 12.1952408182891414   T   T   T
