C  O  Pd                                
    1.000000000000000     
    11.0046904376558210    0.0000000000000000    0.0000000000000000
     0.0000000000000000   11.0046904376558210    0.0000000000000000
     0.0000000000000000    0.0000000000000000   27.7814912333251840
   C    O    Pd
     1     1    80
Selective dynamics
Direct
  0.2362734726751454  0.1260520096545735  0.3895819014375654   T   T   T
  0.2263438072499289  0.1264484295223675  0.4318771297050435   T   T   T
  0.4999947582799366  0.7499916127202680  0.3352091062846743   T   T   T
  0.0000000000000000  0.5000000000000000  0.0539927820073487   F   F   F
  0.2500000000000000  0.0000000000000000  0.0539927820073487   F   F   F
  0.5000000000000000  0.0000000000000000  0.0539927820073487   F   F   F
  0.7500000000000000  0.0000000000000000  0.0539927820073487   F   F   F
  0.0000000000000000  0.2500000000000000  0.0539927820073487   F   F   F
  0.2500000000000000  0.2500000000000000  0.0539927820073487   F   F   F
  0.5000000000000000  0.2500000000000000  0.0539927820073487   F   F   F
  0.6250000000000000  0.1250000000000000  0.1240168419828507   F   F   F
  0.7500000000000000  0.2500000000000000  0.0539927820073487   F   F   F
  0.3750000000000000  0.1250000000000000  0.1240168419828507   F   F   F
  0.5000000000000000  0.5000000000000000  0.0539927820073487   F   F   F
  0.7500000000000000  0.5000000000000000  0.0539927820073487   F   F   F
  0.0000000000000000  0.7500000000000000  0.0539927820073487   F   F   F
  0.2500000000000000  0.7500000000000000  0.0539927820073487   F   F   F
  0.5000000000000000  0.7500000000000000  0.0539927820073487   F   F   F
  0.7500000000000000  0.7500000000000000  0.0539927820073487   F   F   F
  0.2500000000000000  0.5000000000000000  0.0539927820073487   F   F   F
  0.7498909750512334  0.7502551346854079  0.3351322902245306   T   T   T
  0.8750000000000000  0.1250000000000000  0.1240168419828507   F   F   F
  0.2498938441884965  0.2498457887623037  0.1947125703411473   T   T   T
  0.3750000000000000  0.3750000000000000  0.1240168419828507   F   F   F
  0.6250000000000000  0.3750000000000000  0.1240168419828507   F   F   F
  0.8750000000000000  0.3750000000000000  0.1240168419828507   F   F   F
  0.1250000000000000  0.6250000000000000  0.1240168419828507   F   F   F
  0.3750000000000000  0.6250000000000000  0.1240168419828507   F   F   F
  0.6250000000000000  0.6250000000000000  0.1240168419828507   F   F   F
  0.8750000000000000  0.6250000000000000  0.1240168419828507   F   F   F
  0.1250000000000000  0.1250000000000000  0.1240168419828507   F   F   F
  0.1250000000000000  0.8750000000000000  0.1240168419828507   F   F   F
  0.6250000000000000  0.8750000000000000  0.1240168419828507   F   F   F
  0.8750000000000000  0.8750000000000000  0.1240168419828507   F   F   F
  0.0002081327085661  0.9997725963065145  0.1944549982494620   T   T   T
  0.2498950696329791  0.0005802934758666  0.1946364187254984   T   T   T
  0.4995307980706524  0.9997093264314005  0.1944680165724567   T   T   T
  0.7498498541919218  0.9995891844924074  0.1953951295190279   F   F   F
  0.0002873549040814  0.2501843497870482  0.1953786018168842   F   F   F
  0.3750000000000000  0.8750000000000000  0.1240168419828507   F   F   F
  0.1250000000000000  0.3750000000000000  0.1240168419828507   F   F   F
  0.0000000000000000  0.0000000000000000  0.0539927820073487   F   F   F
  0.9999721701275845  0.5004810300845222  0.1953152605885151   F   F   F
  0.4999081810352806  0.5004916659456597  0.1953450866688513   F   F   F
  0.7498977287410714  0.4999691871030027  0.1945656802523840   T   T   T
  0.0001328337861608  0.7500788261974591  0.1953784607620221   F   F   F
  0.2500202464842935  0.7507093328669386  0.1947678270827819   T   T   T
  0.4997598269673915  0.7500518467387067  0.1954040354240618   F   F   F
  0.7499011055414718  0.7498611929518000  0.1945467562567457   T   T   T
  0.1249317760621857  0.1250228922591730  0.2654546080659096   T   T   T
  0.3746709538226790  0.1250245103352838  0.2654844899094139   T   T   T
  0.6243766915491793  0.1248194069505287  0.2648285503872096   T   T   T
  0.8749782415151549  0.1248261587114018  0.2647761692131869   T   T   T
  0.1257015590362889  0.3745684543024281  0.2655276111877458   T   T   T
  0.3738358304078997  0.3743350871486735  0.2656531482405964   T   T   T
  0.6244320593908498  0.3753296098279064  0.2650261669130518   T   T   T
  0.8751564043514953  0.3753416237389667  0.2649871855736812   T   T   T
  0.1252196089234073  0.6253989208485308  0.2650727585942861   T   T   T
  0.3746296475230420  0.6253953072213951  0.2651194681854595   T   T   T
  0.6251667378584889  0.6251130915989753  0.2650108878965287   T   T   T
  0.2500164443441407  0.4996222735465260  0.1947928464966470   T   T   T
  0.8746487171151720  0.6251188586046725  0.2649843834686013   T   T   T
  0.3738184790462709  0.8765180012322503  0.2655740698139245   T   T   T
  0.2495654139791981  0.2513269377618819  0.3387462007585598   T   T   T
  0.6242037225649338  0.8748957222570293  0.2649339650120170   T   T   T
  0.8753649759439469  0.8748903133960805  0.2648919478158525   T   T   T
  0.9975936861949949  0.9996446567165899  0.3353644392538284   T   T   T
  0.2494868861646536  0.9998716063475116  0.3389709246619638   T   T   T
  0.5014687015395386  0.9997079805239369  0.3354660683535190   T   T   T
  0.7496424442020347  0.9999362833960291  0.3348326997824408   T   T   T
  0.9976388430808660  0.2505690690215477  0.3352415558752381   T   T   T
  0.5015102657139507  0.2504963987738625  0.3353415512241925   T   T   T
  0.1256833642532269  0.8762851756153532  0.2654465151687664   T   T   T
  0.7496742395899183  0.2499056218230868  0.3348749133359913   T   T   T
  0.9997227176119421  0.5006750723278808  0.3352045191860696   T   T   T
  0.2498441136093769  0.5007336145572607  0.3354163543765524   T   T   T
  0.5000242995574297  0.5006309548918845  0.3352363649916825   T   T   T
  0.7498973059107759  0.5000176574470123  0.3351750480081301   T   T   T
  0.9997370882563198  0.7499570471117375  0.3351779504524716   T   T   T
  0.2498473049375968  0.7505503148354701  0.3354143823076126   T   T   T
  0.7498332660948819  0.2498666002531422  0.1953346570138947   F   F   F
  0.4994532269252403  0.2501934669664934  0.1953825477344040   F   F   F
 
  0.00000000E+00  0.00000000E+00  0.00000000E+00
  0.00000000E+00  0.00000000E+00  0.00000000E+00
  0.00000000E+00  0.00000000E+00  0.00000000E+00
  0.00000000E+00  0.00000000E+00  0.00000000E+00
  0.00000000E+00  0.00000000E+00  0.00000000E+00
  0.00000000E+00  0.00000000E+00  0.00000000E+00
  0.00000000E+00  0.00000000E+00  0.00000000E+00
  0.00000000E+00  0.00000000E+00  0.00000000E+00
  0.00000000E+00  0.00000000E+00  0.00000000E+00
  0.00000000E+00  0.00000000E+00  0.00000000E+00
  0.00000000E+00  0.00000000E+00  0.00000000E+00
  0.00000000E+00  0.00000000E+00  0.00000000E+00
  0.00000000E+00  0.00000000E+00  0.00000000E+00
  0.00000000E+00  0.00000000E+00  0.00000000E+00
  0.00000000E+00  0.00000000E+00  0.00000000E+00
  0.00000000E+00  0.00000000E+00  0.00000000E+00
  0.00000000E+00  0.00000000E+00  0.00000000E+00
  0.00000000E+00  0.00000000E+00  0.00000000E+00
  0.00000000E+00  0.00000000E+00  0.00000000E+00
  0.00000000E+00  0.00000000E+00  0.00000000E+00
  0.00000000E+00  0.00000000E+00  0.00000000E+00
  0.00000000E+00  0.00000000E+00  0.00000000E+00
  0.00000000E+00  0.00000000E+00  0.00000000E+00
  0.00000000E+00  0.00000000E+00  0.00000000E+00
  0.00000000E+00  0.00000000E+00  0.00000000E+00
  0.00000000E+00  0.00000000E+00  0.00000000E+00
  0.00000000E+00  0.00000000E+00  0.00000000E+00
  0.00000000E+00  0.00000000E+00  0.00000000E+00
  0.00000000E+00  0.00000000E+00  0.00000000E+00
  0.00000000E+00  0.00000000E+00  0.00000000E+00
  0.00000000E+00  0.00000000E+00  0.00000000E+00
  0.00000000E+00  0.00000000E+00  0.00000000E+00
  0.00000000E+00  0.00000000E+00  0.00000000E+00
  0.00000000E+00  0.00000000E+00  0.00000000E+00
  0.00000000E+00  0.00000000E+00  0.00000000E+00
  0.00000000E+00  0.00000000E+00  0.00000000E+00
  0.00000000E+00  0.00000000E+00  0.00000000E+00
  0.00000000E+00  0.00000000E+00  0.00000000E+00
  0.00000000E+00  0.00000000E+00  0.00000000E+00
  0.00000000E+00  0.00000000E+00  0.00000000E+00
  0.00000000E+00  0.00000000E+00  0.00000000E+00
  0.00000000E+00  0.00000000E+00  0.00000000E+00
  0.00000000E+00  0.00000000E+00  0.00000000E+00
  0.00000000E+00  0.00000000E+00  0.00000000E+00
  0.00000000E+00  0.00000000E+00  0.00000000E+00
  0.00000000E+00  0.00000000E+00  0.00000000E+00
  0.00000000E+00  0.00000000E+00  0.00000000E+00
  0.00000000E+00  0.00000000E+00  0.00000000E+00
  0.00000000E+00  0.00000000E+00  0.00000000E+00
  0.00000000E+00  0.00000000E+00  0.00000000E+00
  0.00000000E+00  0.00000000E+00  0.00000000E+00
  0.00000000E+00  0.00000000E+00  0.00000000E+00
  0.00000000E+00  0.00000000E+00  0.00000000E+00
  0.00000000E+00  0.00000000E+00  0.00000000E+00
  0.00000000E+00  0.00000000E+00  0.00000000E+00
  0.00000000E+00  0.00000000E+00  0.00000000E+00
  0.00000000E+00  0.00000000E+00  0.00000000E+00
  0.00000000E+00  0.00000000E+00  0.00000000E+00
  0.00000000E+00  0.00000000E+00  0.00000000E+00
  0.00000000E+00  0.00000000E+00  0.00000000E+00
  0.00000000E+00  0.00000000E+00  0.00000000E+00
  0.00000000E+00  0.00000000E+00  0.00000000E+00
  0.00000000E+00  0.00000000E+00  0.00000000E+00
  0.00000000E+00  0.00000000E+00  0.00000000E+00
  0.00000000E+00  0.00000000E+00  0.00000000E+00
  0.00000000E+00  0.00000000E+00  0.00000000E+00
  0.00000000E+00  0.00000000E+00  0.00000000E+00
  0.00000000E+00  0.00000000E+00  0.00000000E+00
  0.00000000E+00  0.00000000E+00  0.00000000E+00
  0.00000000E+00  0.00000000E+00  0.00000000E+00
  0.00000000E+00  0.00000000E+00  0.00000000E+00
  0.00000000E+00  0.00000000E+00  0.00000000E+00
  0.00000000E+00  0.00000000E+00  0.00000000E+00
  0.00000000E+00  0.00000000E+00  0.00000000E+00
  0.00000000E+00  0.00000000E+00  0.00000000E+00
  0.00000000E+00  0.00000000E+00  0.00000000E+00
  0.00000000E+00  0.00000000E+00  0.00000000E+00
  0.00000000E+00  0.00000000E+00  0.00000000E+00
  0.00000000E+00  0.00000000E+00  0.00000000E+00
  0.00000000E+00  0.00000000E+00  0.00000000E+00
  0.00000000E+00  0.00000000E+00  0.00000000E+00
  0.00000000E+00  0.00000000E+00  0.00000000E+00
