C  H  O  Pd
 1.0000000000000000
    11.0046904376558210    0.0000000000000000    0.0000000000000000
     0.0000000000000000   11.0046904376558210    0.0000000000000000
     0.0000000000000000    0.0000000000000000   27.7814912333251840
 C   H   O   Pd 
   1   3   1  80
Selective dynamics
Direct
  0.6157193651519831  0.8426190247018629  0.4310611326829124   T   T   T
  0.5423758956592997  0.8218355170967864  0.4570058908944812   T   T   T
  0.5958809014136730  0.9325255406935878  0.4137842823761943   T   T   T
  0.7033296478148129  0.8496769473058173  0.4503449680339199   T   T   T
  0.6218078194570824  0.7464506778686564  0.3965660333949376   T   T   T
  0.0000000000000000  0.7500000000000000  0.0539927820073487   F   F   F
  0.8750000000000000  0.1250000000000000  0.1240168419828507   F   F   F
  0.6250000000000001  0.1250000000000000  0.1240168419828507   F   F   F
  0.0000000000000000  0.5000000000000000  0.0539927820073487   F   F   F
  0.2500000000000000  0.0000000000000000  0.0539927820073487   F   F   F
  0.5000000000000000  0.0000000000000000  0.0539927820073487   F   F   F
  0.7500000000000000  0.0000000000000000  0.0539927820073487   F   F   F
  0.2500000000000000  0.7500000000000000  0.0539927820073487   F   F   F
  0.0000000000000000  0.2500000000000000  0.0539927820073487   F   F   F
  0.5000000000000000  0.2500000000000000  0.0539927820073487   F   F   F
  0.7500000000000000  0.2500000000000000  0.0539927820073487   F   F   F
  0.2500000000000000  0.5000000000000000  0.0539927820073487   F   F   F
  0.3750000000000000  0.1250000000000000  0.1240168419828507   F   F   F
  0.5000000000000000  0.5000000000000000  0.0539927820073487   F   F   F
  0.7500000000000000  0.5000000000000000  0.0539927820073487   F   F   F
  0.1250000000000000  0.3750000000000000  0.1240168419828507   F   F   F
  0.2500000000000000  0.2500000000000000  0.0539927820073487   F   F   F
  0.2488194753136428  0.2500757630390872  0.1955042420537695   F   F   F
  0.5000000000000000  0.7500000000000000  0.0539927820073487   F   F   F
  0.7536048625177673  0.7512241422546068  0.3413366163842498   T   T   T
  0.4918982862087291  0.7500365170866192  0.3406132970776246   T   T   T
  0.3750000000000000  0.3750000000000000  0.1240168419828507   F   F   F
  0.6250000000000001  0.3750000000000000  0.1240168419828507   F   F   F
  0.8750000000000000  0.3750000000000000  0.1240168419828507   F   F   F
  0.1250000000000000  0.6250000000000001  0.1240168419828507   F   F   F
  0.3750000000000000  0.6250000000000001  0.1240168419828507   F   F   F
 -0.0013127110765203  0.2499310526318106  0.1955724197816298   T   T   T
  0.6250000000000001  0.6250000000000001  0.1240168419828507   F   F   F
  0.1250000000000000  0.8750000000000000  0.1240168419828507   F   F   F
  0.3750000000000000  0.8750000000000000  0.1240168419828507   F   F   F
  0.6250000000000001  0.8750000000000000  0.1240168419828507   F   F   F
  0.8750000000000000  0.8750000000000000  0.1240168419828507   F   F   F
 -0.0010252180712305 -0.0002288490655970  0.1955376971862616   F   F   F
  0.2490597891310995 -0.0000163937224280  0.1955937387216743   T   T   T
  0.4988169772096234  0.0000388019535270  0.1955902921096993   T   T   T
  0.8750000000000000  0.6250000000000001  0.1240168419828507   F   F   F
  0.7490018668922089 -0.0002630118879926  0.1956427265003170   T   T   T
  0.0000000000000000  0.0000000000000000  0.0539927820073487   F   F   F
  0.4987928792790475  0.2502650546081968  0.1953864852169357   F   F   F
  0.3728348866581746  0.1252673042589834  0.2669587714021103   T   T   T
  0.4987019372800061  0.5007826139686197  0.1955562491971879   F   F   F
  0.7491901043296385  0.5006414058844770  0.1955561295683313   F   F   F
 -0.0015932958337948  0.7499807272255796  0.1956992927325250   T   T   T
  0.2491342341915498  0.7502926319295292  0.1957649025995837   T   T   T
  0.4991993982510571  0.7505863851513526  0.1956763881198651   T   T   T
  0.7487331066266022  0.7501895120282005  0.1955524566112367   F   F   F
  0.1228595698507060  0.1251979652821029  0.2670611194877887   T   T   T
  0.6230115004636210  0.1257588154917028  0.2667636407649785   T   T   T
  0.6232558431056588  0.6261813041787834  0.2672634084624515   T   T   T
  0.8732658269523930  0.1250415956881109  0.2669570368629800   T   T   T
  0.1225893849885235  0.3748711564745404  0.2669482488772335   T   T   T
  0.3724386354766239  0.3759188422326883  0.2667455531366619   T   T   T
  0.6227944037137708  0.3757628003087159  0.2666651492903805   T   T   T
  0.8730210724851222  0.3754340586212744  0.2669811986252632   T   T   T
  0.1229939978418384  0.6250733808008738  0.2669468309535894   T   T   T
  0.3739523438208543  0.6269185920725211  0.2677659284864126   T   T   T
  0.2487741146943319  0.5004796229557082  0.1955497985429848   F   F   F
  0.8721940716145139  0.6265301680662417  0.2679628045100312   T   T   T
  0.3739692642408013  0.8745543325279506  0.2678289669110682   T   T   T
  0.2453424518688688  0.7503695806883857  0.3390516482043721   T   T   T
  0.7489124976299817  0.2502146599193029  0.1953960084395369   F   F   F
 -0.0012196188970518  0.5001931965682509  0.1955609117975449   T   T   T
  0.2468677750890324  0.2506557173722219  0.3386863564641910   T   T   T
  0.6232605526076649  0.8754571498280916  0.2675882106614388   T   T   T
  0.8723372639282276  0.8740861513700369  0.2678142994932652   T   T   T
 -0.0015643530949536 -0.0000955580915020  0.3390050988283668   T   T   T
  0.2475786591734571  0.0008158355953091  0.3389367603525854   T   T   T
  0.4974975032180585  0.0030756706660936  0.3388512597636648   T   T   T
  0.1250000000000000  0.1250000000000000  0.1240168419828507   F   F   F
  0.7488427369356051  0.0032554161297514  0.3385718170415378   T   T   T
  0.4966407432120420  0.2509221534699164  0.3384749781590109   T   T   T
  0.1230571694833628  0.8752977564836826  0.2670407699980861   T   T   T
  0.7463804348530957  0.2511835071747034  0.3386403367990813   T   T   T
 -0.0018249248661253  0.4996758633005472  0.3387667277600980   T   T   T
  0.2471514880841136  0.5002004954915584  0.3388246971324750   T   T   T
  0.4968784714314886  0.4980816133293916  0.3384982001702820   T   T   T
  0.7480342849213549  0.4986805885135907  0.3385972751254738   T   T   T
  0.0001295912837916  0.7498683564807285  0.3390219348988180   T   T   T
 -0.0035357374277567  0.2498326751842526  0.3389480648424311   T   T   T
  0.7500000000000000  0.7500000000000000  0.0539927820073487   F   F   F
Cartesian
  0.0000000000000000  0.0000000000000000  0.0000000000000000
  0.0000000000000000  0.0000000000000000  0.0000000000000000
  0.0000000000000000  0.0000000000000000  0.0000000000000000
  0.0000000000000000  0.0000000000000000  0.0000000000000000
  0.0000000000000000  0.0000000000000000  0.0000000000000000
  0.0000000000000000  0.0000000000000000  0.0000000000000000
  0.0000000000000000  0.0000000000000000  0.0000000000000000
  0.0000000000000000  0.0000000000000000  0.0000000000000000
  0.0000000000000000  0.0000000000000000  0.0000000000000000
  0.0000000000000000  0.0000000000000000  0.0000000000000000
  0.0000000000000000  0.0000000000000000  0.0000000000000000
  0.0000000000000000  0.0000000000000000  0.0000000000000000
  0.0000000000000000  0.0000000000000000  0.0000000000000000
  0.0000000000000000  0.0000000000000000  0.0000000000000000
  0.0000000000000000  0.0000000000000000  0.0000000000000000
  0.0000000000000000  0.0000000000000000  0.0000000000000000
  0.0000000000000000  0.0000000000000000  0.0000000000000000
  0.0000000000000000  0.0000000000000000  0.0000000000000000
  0.0000000000000000  0.0000000000000000  0.0000000000000000
  0.0000000000000000  0.0000000000000000  0.0000000000000000
  0.0000000000000000  0.0000000000000000  0.0000000000000000
  0.0000000000000000  0.0000000000000000  0.0000000000000000
  0.0000000000000000  0.0000000000000000  0.0000000000000000
  0.0000000000000000  0.0000000000000000  0.0000000000000000
  0.0000000000000000  0.0000000000000000  0.0000000000000000
  0.0000000000000000  0.0000000000000000  0.0000000000000000
  0.0000000000000000  0.0000000000000000  0.0000000000000000
  0.0000000000000000  0.0000000000000000  0.0000000000000000
  0.0000000000000000  0.0000000000000000  0.0000000000000000
  0.0000000000000000  0.0000000000000000  0.0000000000000000
  0.0000000000000000  0.0000000000000000  0.0000000000000000
  0.0000000000000000  0.0000000000000000  0.0000000000000000
  0.0000000000000000  0.0000000000000000  0.0000000000000000
  0.0000000000000000  0.0000000000000000  0.0000000000000000
  0.0000000000000000  0.0000000000000000  0.0000000000000000
  0.0000000000000000  0.0000000000000000  0.0000000000000000
  0.0000000000000000  0.0000000000000000  0.0000000000000000
  0.0000000000000000  0.0000000000000000  0.0000000000000000
  0.0000000000000000  0.0000000000000000  0.0000000000000000
  0.0000000000000000  0.0000000000000000  0.0000000000000000
  0.0000000000000000  0.0000000000000000  0.0000000000000000
  0.0000000000000000  0.0000000000000000  0.0000000000000000
  0.0000000000000000  0.0000000000000000  0.0000000000000000
  0.0000000000000000  0.0000000000000000  0.0000000000000000
  0.0000000000000000  0.0000000000000000  0.0000000000000000
  0.0000000000000000  0.0000000000000000  0.0000000000000000
  0.0000000000000000  0.0000000000000000  0.0000000000000000
  0.0000000000000000  0.0000000000000000  0.0000000000000000
  0.0000000000000000  0.0000000000000000  0.0000000000000000
  0.0000000000000000  0.0000000000000000  0.0000000000000000
  0.0000000000000000  0.0000000000000000  0.0000000000000000
  0.0000000000000000  0.0000000000000000  0.0000000000000000
  0.0000000000000000  0.0000000000000000  0.0000000000000000
  0.0000000000000000  0.0000000000000000  0.0000000000000000
  0.0000000000000000  0.0000000000000000  0.0000000000000000
  0.0000000000000000  0.0000000000000000  0.0000000000000000
  0.0000000000000000  0.0000000000000000  0.0000000000000000
  0.0000000000000000  0.0000000000000000  0.0000000000000000
  0.0000000000000000  0.0000000000000000  0.0000000000000000
  0.0000000000000000  0.0000000000000000  0.0000000000000000
  0.0000000000000000  0.0000000000000000  0.0000000000000000
  0.0000000000000000  0.0000000000000000  0.0000000000000000
  0.0000000000000000  0.0000000000000000  0.0000000000000000
  0.0000000000000000  0.0000000000000000  0.0000000000000000
  0.0000000000000000  0.0000000000000000  0.0000000000000000
  0.0000000000000000  0.0000000000000000  0.0000000000000000
  0.0000000000000000  0.0000000000000000  0.0000000000000000
  0.0000000000000000  0.0000000000000000  0.0000000000000000
  0.0000000000000000  0.0000000000000000  0.0000000000000000
  0.0000000000000000  0.0000000000000000  0.0000000000000000
  0.0000000000000000  0.0000000000000000  0.0000000000000000
  0.0000000000000000  0.0000000000000000  0.0000000000000000
  0.0000000000000000  0.0000000000000000  0.0000000000000000
  0.0000000000000000  0.0000000000000000  0.0000000000000000
  0.0000000000000000  0.0000000000000000  0.0000000000000000
  0.0000000000000000  0.0000000000000000  0.0000000000000000
  0.0000000000000000  0.0000000000000000  0.0000000000000000
  0.0000000000000000  0.0000000000000000  0.0000000000000000
  0.0000000000000000  0.0000000000000000  0.0000000000000000
  0.0000000000000000  0.0000000000000000  0.0000000000000000
  0.0000000000000000  0.0000000000000000  0.0000000000000000
  0.0000000000000000  0.0000000000000000  0.0000000000000000
  0.0000000000000000  0.0000000000000000  0.0000000000000000
  0.0000000000000000  0.0000000000000000  0.0000000000000000
  0.0000000000000000  0.0000000000000000  0.0000000000000000
