Pd O                                    
    1.000000000000000     
     3.0536041100000002    0.0000000000000000    0.0000000000000002
     0.0000000000000005    3.0536041100000002    0.0000000000000002
     0.0000000000000000    0.0000000000000000    5.3712567900000003
   Pd   O 
     2     2
Direct
  0.5000000000000000  0.0000000000000000  0.5000000000000000
  0.0000000000000000  0.5000000000000000  0.0000000000000000
  0.0000000000000000  0.0000000000000000  0.7500000000000000
  0.0000000000000000  0.0000000000000000  0.2500000000000000
 
  0.00000000E+00  0.00000000E+00  0.00000000E+00
  0.00000000E+00  0.00000000E+00  0.00000000E+00
  0.00000000E+00  0.00000000E+00  0.00000000E+00
  0.00000000E+00  0.00000000E+00  0.00000000E+00
