Pd O 
 1.0000000000000000
     3.0536041100000002    0.0000000000000000    0.0000000000000002
     0.0000000000000005    3.0536041100000002    0.0000000000000002
     0.0000000000000000    0.0000000000000000    5.3712567900000003
 Pd  O  
   2   2
Cartesian
  1.5268020550000001  0.0000000000000000  2.6856283950000002
  0.0000000000000003  1.5268020550000001  0.0000000000000001
  0.0000000000000000  0.0000000000000000  4.0284425925000003
  0.0000000000000000  0.0000000000000000  1.3428141975000001
