C  O  Pd
 1.0000000000000000
     9.5317092920176041    0.0000000000000000    0.0000000000000000
     0.0000000000000000   12.8477517144159332    0.0000000000000000
     0.0000000000000000    0.0000000000000000   32.1028443220921673
 C   O   Pd 
   1  97  48
Selective dynamics
Direct
  0.9068077790524370  0.2109668423930256  0.4887409263801463   T   T   T
  0.8343532858689994  0.0357882415261881  0.3978348519419811   T   T   T
  0.8333333333333357  0.2789897956032235  0.0851486940133555   F   F   F
  0.3343417152134174  0.8988117289280260  0.3492850884811524   T   T   T
  0.3345097481701235  0.8717411585376247  0.4264378352057690   T   T   T
  0.5012354666981153  0.7252576685418368  0.3907877094810270   T   T   T
  0.5015217711479535  0.5358060257569294  0.3980247123734843   T   T   T
  0.3335956502639263  0.6435597926199971  0.2476860105337327   T   T   T
  0.3340499909802672  0.6059936388378091  0.3241655400063101   T   T   T
  0.5006366047360642  0.9715940687291426  0.2783585001072098   T   T   T
  0.3336749372328148  0.1435684492628710  0.2475995038398439   T   T   T
  0.3346274713352300  0.3980507452229625  0.3493476728879693   T   T   T
  0.3333318648019943  0.8750000864356643  0.2250895420487288   F   F   F
  0.4999976377976332  0.7209531764862156  0.1895758217978223   F   F   F
  0.3333333333333357  0.6250000000000000  0.0467248317610185   F   F   F
  0.3333333333333357  0.6250000000000000  0.1235725562656853   F   F   F
  0.5000000000000000  0.9710102043967765  0.0851486940133555   F   F   F
  0.5000000000000000  0.7789897956032235  0.0851486940133555   F   F   F
  0.6676452172391747  0.8718398630424387  0.4263416807227468   T   T   T
  0.3352011839747257  0.3714130584983460  0.4263286619325925   T   T   T
  0.5015836745980290  0.2251141318663069  0.3905073031435722   T   T   T
  0.3333333333333357  0.8750000000000000  0.1467763379882641   F   F   F
  0.5006537678720663  0.7802659341676995  0.2970231611364293   T   T   T
  0.4999976639328576  0.5290466686199733  0.1895761637574985   F   F   F
  0.6689944801762215  0.3717831752620580  0.4262605441109869   T   T   T
  0.8348082002090915  0.7252065914780721  0.3909797247748494   T   T   T
  0.6670733824881566  0.6438758063552906  0.2476287507415264   T   T   T
  0.8345528628384709  0.5357804956283971  0.3977999419731665   T   T   T
  0.8333333333333357  0.4710102043967765  0.0851486940133555   F   F   F
  0.8333339558353259  0.0290462541212847  0.1895758119370538   F   F   F
  0.6666666666666643  0.1250000000000000  0.1235725562656853   F   F   F
  0.3333333333333357  0.3750000000000000  0.1467763379882641   F   F   F
  0.8339347095735049  0.9715420878662979  0.2783479233415405   T   T   T
  0.5006100981739792  0.2801366321669632  0.2968172728148131   T   T   T
  0.6672738832394662  0.6058432815119060  0.3241541972006833   T   T   T
  0.8333333409382341  0.7209531152421449  0.1895756052193645   F   F   F
  0.8339366948259062  0.7802539542712972  0.2970029663361525   T   T   T
  0.6666666666666643  0.8750000000000000  0.1467763379882641   F   F   F
  0.6666655358647100  0.8750000108504334  0.2250883423864175   F   F   F
  0.8333333008508301  0.5290468981117665  0.1895759154731361   F   F   F
  0.6666666666666643  0.6250000000000000  0.0467248317610185   F   F   F
  0.6666666666666643  0.6250000000000000  0.1235725562656853   F   F   F
  0.8333333333333357  0.9710102043967765  0.0851486940133555   F   F   F
  0.8333333333333357  0.7789897956032235  0.0851486940133555   F   F   F
  0.6678817724149342  0.3982034565215454  0.3490988613284985   T   T   T
  0.5006166749054016  0.4717107247009452  0.2784023313869521   T   T   T
  0.5014207151050591  0.0357274314679779  0.3979968859905027   T   T   T
  0.8347923638286955  0.2251847674828311  0.3905260031423540   T   T   T
  0.3338525766167483  0.1057201178968892  0.3240187944970946   T   T   T
  0.6671239392559805  0.1440212216831905  0.2476055649354559   T   T   T
  0.8338543504170063  0.4716933836609912  0.2785493360493752   T   T   T
  0.8340032011024584  0.2801660362307754  0.2967564563655972   T   T   T
  0.6666666666666643  0.3750000000000000  0.1467763379882641   F   F   F
  0.6666664721965994  0.3750001394610554  0.2250885421256194   F   F   F
  0.8333336160653568  0.2209531548581329  0.1895755782756444   F   F   F
  0.6666666666666643  0.1250000000000000  0.0467248317610185   F   F   F
  0.3333326882537072  0.3749997926392740  0.2250885499289598   F   F   F
  0.6676320143043427  0.8986801817588331  0.3492889370267557   T   T   T
  0.4999980417944865  0.0290462347966568  0.1895760715474884   F   F   F
  0.1666659623339084  0.7209538630219027  0.1895756713862576   F   F   F
  1.0003530886067322  0.1437967077054528  0.2476228548090723   T   T   T
  0.1666659175182925  0.5290462010831961  0.1895759780398522   F   F   F
  0.0000000000000000  0.6250000000000000  0.0467248317610185   F   F   F
  0.4999988243319552  0.2209529651499486  0.1895755725505499   F   F   F
  0.1666666666666643  0.9710102043967765  0.0851486940133555   F   F   F
  0.1666666666666643  0.7789897956032235  0.0851486940133555   F   F   F
  0.0015813098700175  0.3984269860319631  0.3491046932278348   T   T   T
  1.0010766225687402  0.3733535902233229  0.4263150199415534   T   T   T
  0.1681159307958680  0.2251148796208240  0.3903034644115733   T   T   T
  0.1682295957607616  0.0358830410926551  0.3979672617359550   T   T   T
  0.0005993498853086  0.1059599759487464  0.3240691616834687   T   T   T
  0.0000003549571299  0.8750000107713112  0.2250882234763902   F   F   F
  0.1673679468776457  0.4717820765217730  0.2785119271836976   T   T   T
  0.8564894289311280  0.2566039574529747  0.5155708018290683   T   T   T
  0.0000000000000000  0.3750000000000000  0.1467763379882641   F   F   F
  0.1673881981017443  0.2801986489989027  0.2968263756373756   T   T   T
  0.0000007107164886  0.3749999603060230  0.2250885125878732   F   F   F
  0.1666663027958614  0.2209539505437224  0.1895756072453514   F   F   F
  0.1666663400494306  0.0290460185855896  0.1895759024921872   F   F   F
  0.0000000000000000  0.1250000000000000  0.0467248317610185   F   F   F
  0.0000000000000000  0.1250000000000000  0.1235725562656853   F   F   F
  0.1666666666666643  0.4710102043967765  0.0851486940133555   F   F   F
  0.1666666666666643  0.2789897956032235  0.0851486940133555   F   F   F
  0.0000000000000000  0.8750000000000000  0.1467763379882641   F   F   F
  0.1671500252002614  0.7802726768266969  0.2969850967409016   T   T   T
  0.0000000000000000  0.6250000000000000  0.1235725562656853   F   F   F
  0.6674302460323138  0.1059987554028703  0.3240841872664494   T   T   T
  0.1680820343031982  0.5356422075267294  0.3979604836193550   T   T   T
  0.5000000000000000  0.2789897956032235  0.0851486940133555   F   F   F
  0.1677701611872513  0.7254313839272373  0.3906849911148573   T   T   T
  1.0013344134141049  0.8716264305570697  0.4263124741153289   T   T   T
  0.3333333333333357  0.1250000000000000  0.1235725562656853   F   F   F
  1.0003363081480483  0.6437907861020671  0.2477220410018979   T   T   T
  0.5000000000000000  0.4710102043967765  0.0851486940133555   F   F   F
  0.0011279844530392  0.8986262224107461  0.3492754480885463   T   T   T
  0.0004184179927018  0.6060408167844787  0.3241306624299665   T   T   T
  0.1671198003795285  0.9715785791213143  0.2784110380938454   T   T   T
  0.3333333333333357  0.1250000000000000  0.0467248317610185   F   F   F
  0.6672812600081361  0.8764568657170837  0.2878601263229456   T   T   T
  0.8337136669608634  0.6264458202495974  0.2858226155048767   T   T   T
  0.3339258800232801  0.8764572312954938  0.2878450103181652   T   T   T
  0.6666655568862668  0.6249997720375131  0.1847577838516319   F   F   F
  0.3348438211081525  0.1295711827589928  0.3854258960971538   T   T   T
  0.8333333333333357  0.6250000000000000  0.0851486940133555   F   F   F
  0.6666666666666643  0.8750000000000000  0.0851486940133555   F   F   F
  0.8333311666192106  0.8749995704976669  0.1858642171120021   F   F   F
  0.1671648938363450  0.1263600553179740  0.2857271149182824   T   T   T
  0.1666666847735583  0.3750001305958783  0.1858643915636921   F   F   F
  0.6680618359854440  0.6295222070836649  0.3855372627787697   T   T   T
  0.3339807975030757  0.3764501805110244  0.2878161673149986   T   T   T
  0.5005132048508106  0.1263368048910184  0.2857439347881936   T   T   T
  0.8344549247678933  0.8810565297018526  0.3881270328753624   T   T   T
  0.3333354546060130  0.1249999476819220  0.1847578122735502   F   F   F
  0.0000000000000000  0.3750000000000000  0.0851486940133555   F   F   F
  0.9999970987911158  0.1250000184490408  0.1847578466783704   F   F   F
  0.3333333333333357  0.3750000000000000  0.0851486940133555   F   F   F
  0.1683541019967387  0.3806928625970012  0.3881402099573644   T   T   T
  0.5017743024434677  0.3808391063361464  0.3880992869789918   T   T   T
  0.1666666666666643  0.1250000000000000  0.0851486940133555   F   F   F
  0.5000014304295636  0.3749999974283293  0.1858644222348644   F   F   F
  0.5000000000000000  0.1250000000000000  0.0851486940133555   F   F   F
  0.1666666666666643  0.6250000000000000  0.0851486940133555   F   F   F
  1.0007285502282186  0.3765096569830457  0.2877454405003145   T   T   T
  0.5000005790671146  0.8749996008049955  0.1858647103970161   F   F   F
  0.3346104953680884  0.6296196278911048  0.3855285560057022   T   T   T
  0.1678891430132748  0.8810043985071201  0.3881424409746326   T   T   T
  0.3333348655297959  0.6249998188937667  0.1847577531331055   F   F   F
  0.9999968754065039  0.6249998164331720  0.1847577848474051   F   F   F
  0.8333333333333357  0.1250000000000000  0.0851486940133555   F   F   F
  0.6666666666666643  0.3750000000000000  0.0851486940133555   F   F   F
  0.1666668975657561  0.8749998441626324  0.1858646099702742   F   F   F
  1.0013789158822299  0.6293944654625276  0.3854652222007219   T   T   T
  0.6681759424268952  0.1293227942296847  0.3854283065086310   T   T   T
  0.6666662687465629  0.1249996349829204  0.1847578301666214   F   F   F
  0.0000000000000000  0.8750000000000000  0.0851486940133555   F   F   F
  0.8338498518533173  0.1262834867948804  0.2857403225193480   T   T   T
  0.6672989014840742  0.3763915829978764  0.2876921303211247   T   T   T
  0.3333333333333357  0.8750000000000000  0.0851486940133555   F   F   F
  0.5000000000000000  0.6250000000000000  0.0851486940133555   F   F   F
  1.0014094300121981  0.1293516590727658  0.3852870875042615   T   T   T
  0.5005660049088643  0.6264395218276259  0.2857990628199520   T   T   T
  0.1670976838871165  0.6264355131908780  0.2858666470497599   T   T   T
  0.8333316115610666  0.3750001538755701  0.1858644410325545   F   F   F
  1.0005751343194882  0.8764446860311067  0.2878405742637191   T   T   T
  0.8348571508903696  0.3808087181122948  0.3878922427793832   T   T   T
  0.5010322542375389  0.8808882352820313  0.3881510433679718   T   T   T
Cartesian
  0.0000000000000000  0.0000000000000000  0.0000000000000000
  0.0000000000000000  0.0000000000000000  0.0000000000000000
  0.0000000000000000  0.0000000000000000  0.0000000000000000
  0.0000000000000000  0.0000000000000000  0.0000000000000000
  0.0000000000000000  0.0000000000000000  0.0000000000000000
  0.0000000000000000  0.0000000000000000  0.0000000000000000
  0.0000000000000000  0.0000000000000000  0.0000000000000000
  0.0000000000000000  0.0000000000000000  0.0000000000000000
  0.0000000000000000  0.0000000000000000  0.0000000000000000
  0.0000000000000000  0.0000000000000000  0.0000000000000000
  0.0000000000000000  0.0000000000000000  0.0000000000000000
  0.0000000000000000  0.0000000000000000  0.0000000000000000
  0.0000000000000000  0.0000000000000000  0.0000000000000000
  0.0000000000000000  0.0000000000000000  0.0000000000000000
  0.0000000000000000  0.0000000000000000  0.0000000000000000
  0.0000000000000000  0.0000000000000000  0.0000000000000000
  0.0000000000000000  0.0000000000000000  0.0000000000000000
  0.0000000000000000  0.0000000000000000  0.0000000000000000
  0.0000000000000000  0.0000000000000000  0.0000000000000000
  0.0000000000000000  0.0000000000000000  0.0000000000000000
  0.0000000000000000  0.0000000000000000  0.0000000000000000
  0.0000000000000000  0.0000000000000000  0.0000000000000000
  0.0000000000000000  0.0000000000000000  0.0000000000000000
  0.0000000000000000  0.0000000000000000  0.0000000000000000
  0.0000000000000000  0.0000000000000000  0.0000000000000000
  0.0000000000000000  0.0000000000000000  0.0000000000000000
  0.0000000000000000  0.0000000000000000  0.0000000000000000
  0.0000000000000000  0.0000000000000000  0.0000000000000000
  0.0000000000000000  0.0000000000000000  0.0000000000000000
  0.0000000000000000  0.0000000000000000  0.0000000000000000
  0.0000000000000000  0.0000000000000000  0.0000000000000000
  0.0000000000000000  0.0000000000000000  0.0000000000000000
  0.0000000000000000  0.0000000000000000  0.0000000000000000
  0.0000000000000000  0.0000000000000000  0.0000000000000000
  0.0000000000000000  0.0000000000000000  0.0000000000000000
  0.0000000000000000  0.0000000000000000  0.0000000000000000
  0.0000000000000000  0.0000000000000000  0.0000000000000000
  0.0000000000000000  0.0000000000000000  0.0000000000000000
  0.0000000000000000  0.0000000000000000  0.0000000000000000
  0.0000000000000000  0.0000000000000000  0.0000000000000000
  0.0000000000000000  0.0000000000000000  0.0000000000000000
  0.0000000000000000  0.0000000000000000  0.0000000000000000
  0.0000000000000000  0.0000000000000000  0.0000000000000000
  0.0000000000000000  0.0000000000000000  0.0000000000000000
  0.0000000000000000  0.0000000000000000  0.0000000000000000
  0.0000000000000000  0.0000000000000000  0.0000000000000000
  0.0000000000000000  0.0000000000000000  0.0000000000000000
  0.0000000000000000  0.0000000000000000  0.0000000000000000
  0.0000000000000000  0.0000000000000000  0.0000000000000000
  0.0000000000000000  0.0000000000000000  0.0000000000000000
  0.0000000000000000  0.0000000000000000  0.0000000000000000
  0.0000000000000000  0.0000000000000000  0.0000000000000000
  0.0000000000000000  0.0000000000000000  0.0000000000000000
  0.0000000000000000  0.0000000000000000  0.0000000000000000
  0.0000000000000000  0.0000000000000000  0.0000000000000000
  0.0000000000000000  0.0000000000000000  0.0000000000000000
  0.0000000000000000  0.0000000000000000  0.0000000000000000
  0.0000000000000000  0.0000000000000000  0.0000000000000000
  0.0000000000000000  0.0000000000000000  0.0000000000000000
  0.0000000000000000  0.0000000000000000  0.0000000000000000
  0.0000000000000000  0.0000000000000000  0.0000000000000000
  0.0000000000000000  0.0000000000000000  0.0000000000000000
  0.0000000000000000  0.0000000000000000  0.0000000000000000
  0.0000000000000000  0.0000000000000000  0.0000000000000000
  0.0000000000000000  0.0000000000000000  0.0000000000000000
  0.0000000000000000  0.0000000000000000  0.0000000000000000
  0.0000000000000000  0.0000000000000000  0.0000000000000000
  0.0000000000000000  0.0000000000000000  0.0000000000000000
  0.0000000000000000  0.0000000000000000  0.0000000000000000
  0.0000000000000000  0.0000000000000000  0.0000000000000000
  0.0000000000000000  0.0000000000000000  0.0000000000000000
  0.0000000000000000  0.0000000000000000  0.0000000000000000
  0.0000000000000000  0.0000000000000000  0.0000000000000000
  0.0000000000000000  0.0000000000000000  0.0000000000000000
  0.0000000000000000  0.0000000000000000  0.0000000000000000
  0.0000000000000000  0.0000000000000000  0.0000000000000000
  0.0000000000000000  0.0000000000000000  0.0000000000000000
  0.0000000000000000  0.0000000000000000  0.0000000000000000
  0.0000000000000000  0.0000000000000000  0.0000000000000000
  0.0000000000000000  0.0000000000000000  0.0000000000000000
  0.0000000000000000  0.0000000000000000  0.0000000000000000
  0.0000000000000000  0.0000000000000000  0.0000000000000000
  0.0000000000000000  0.0000000000000000  0.0000000000000000
  0.0000000000000000  0.0000000000000000  0.0000000000000000
  0.0000000000000000  0.0000000000000000  0.0000000000000000
  0.0000000000000000  0.0000000000000000  0.0000000000000000
  0.0000000000000000  0.0000000000000000  0.0000000000000000
  0.0000000000000000  0.0000000000000000  0.0000000000000000
  0.0000000000000000  0.0000000000000000  0.0000000000000000
  0.0000000000000000  0.0000000000000000  0.0000000000000000
  0.0000000000000000  0.0000000000000000  0.0000000000000000
  0.0000000000000000  0.0000000000000000  0.0000000000000000
  0.0000000000000000  0.0000000000000000  0.0000000000000000
  0.0000000000000000  0.0000000000000000  0.0000000000000000
  0.0000000000000000  0.0000000000000000  0.0000000000000000
  0.0000000000000000  0.0000000000000000  0.0000000000000000
  0.0000000000000000  0.0000000000000000  0.0000000000000000
  0.0000000000000000  0.0000000000000000  0.0000000000000000
  0.0000000000000000  0.0000000000000000  0.0000000000000000
  0.0000000000000000  0.0000000000000000  0.0000000000000000
  0.0000000000000000  0.0000000000000000  0.0000000000000000
  0.0000000000000000  0.0000000000000000  0.0000000000000000
  0.0000000000000000  0.0000000000000000  0.0000000000000000
  0.0000000000000000  0.0000000000000000  0.0000000000000000
  0.0000000000000000  0.0000000000000000  0.0000000000000000
  0.0000000000000000  0.0000000000000000  0.0000000000000000
  0.0000000000000000  0.0000000000000000  0.0000000000000000
  0.0000000000000000  0.0000000000000000  0.0000000000000000
  0.0000000000000000  0.0000000000000000  0.0000000000000000
  0.0000000000000000  0.0000000000000000  0.0000000000000000
  0.0000000000000000  0.0000000000000000  0.0000000000000000
  0.0000000000000000  0.0000000000000000  0.0000000000000000
  0.0000000000000000  0.0000000000000000  0.0000000000000000
  0.0000000000000000  0.0000000000000000  0.0000000000000000
  0.0000000000000000  0.0000000000000000  0.0000000000000000
  0.0000000000000000  0.0000000000000000  0.0000000000000000
  0.0000000000000000  0.0000000000000000  0.0000000000000000
  0.0000000000000000  0.0000000000000000  0.0000000000000000
  0.0000000000000000  0.0000000000000000  0.0000000000000000
  0.0000000000000000  0.0000000000000000  0.0000000000000000
  0.0000000000000000  0.0000000000000000  0.0000000000000000
  0.0000000000000000  0.0000000000000000  0.0000000000000000
  0.0000000000000000  0.0000000000000000  0.0000000000000000
  0.0000000000000000  0.0000000000000000  0.0000000000000000
  0.0000000000000000  0.0000000000000000  0.0000000000000000
  0.0000000000000000  0.0000000000000000  0.0000000000000000
  0.0000000000000000  0.0000000000000000  0.0000000000000000
  0.0000000000000000  0.0000000000000000  0.0000000000000000
  0.0000000000000000  0.0000000000000000  0.0000000000000000
  0.0000000000000000  0.0000000000000000  0.0000000000000000
  0.0000000000000000  0.0000000000000000  0.0000000000000000
  0.0000000000000000  0.0000000000000000  0.0000000000000000
  0.0000000000000000  0.0000000000000000  0.0000000000000000
  0.0000000000000000  0.0000000000000000  0.0000000000000000
  0.0000000000000000  0.0000000000000000  0.0000000000000000
  0.0000000000000000  0.0000000000000000  0.0000000000000000
  0.0000000000000000  0.0000000000000000  0.0000000000000000
  0.0000000000000000  0.0000000000000000  0.0000000000000000
  0.0000000000000000  0.0000000000000000  0.0000000000000000
  0.0000000000000000  0.0000000000000000  0.0000000000000000
  0.0000000000000000  0.0000000000000000  0.0000000000000000
  0.0000000000000000  0.0000000000000000  0.0000000000000000
  0.0000000000000000  0.0000000000000000  0.0000000000000000
  0.0000000000000000  0.0000000000000000  0.0000000000000000
  0.0000000000000000  0.0000000000000000  0.0000000000000000
  0.0000000000000000  0.0000000000000000  0.0000000000000000
