C  O  Pd
 1.0000000000000000
     9.5317092920176041    0.0000000000000000    0.0000000000000000
     0.0000000000000000   12.8477517144159332    0.0000000000000000
     0.0000000000000000    0.0000000000000000   32.1028443220921673
 C   O   Pd 
   1  97  48
Selective dynamics
Direct
 -0.2110364936126717  0.6109083104746243  0.4886431314811889   T   T   T
  0.8333777258089731  0.0387902949095352  0.3974266879998364   T   T   T
  0.8333333333333357  0.2789897956032235  0.0851486940133555   F   F   F
  0.3333264855187463  0.9007645990090523  0.3492104968083674   T   T   T
  0.3333695051386566  0.8758073044717690  0.4263532925625611   T   T   T
  0.4997694804660326  0.7281637330929165  0.3910050826640839   T   T   T
  0.4995859924768638  0.5385867222107850  0.3978231099960115   T   T   T
  0.3333643203289383  0.6462085806315345  0.2474429303256065   T   T   T
  0.3332256807407019  0.6098373086002931  0.3240614671757159   T   T   T
  0.4998775155100552  0.9746387637889652  0.2778430987570286   T   T   T
  0.3333080624835580  0.1468762661468058  0.2474938050207680   T   T   T
  0.3333366907828373  0.4020832033061511  0.3490377157890950   T   T   T
  0.3333318648019943  0.8750000864356643  0.2250895420487288   F   F   F
  0.4999976377976332  0.7209531764862156  0.1895758217978223   F   F   F
  0.3333333333333357  0.6250000000000000  0.0467248317610185   F   F   F
  0.3333333333333357  0.6250000000000000  0.1235725562656853   F   F   F
  0.5000000000000000  0.9710102043967765  0.0851486940133555   F   F   F
  0.5000000000000000  0.7789897956032235  0.0851486940133555   F   F   F
  0.6666524319500140  0.8749639682954522  0.4263414610707609   T   T   T
  0.3332777638832993  0.3734945977847793  0.4260243363465350   T   T   T
  0.5000932678820266  0.2279711132662164  0.3896431057885905   T   T   T
  0.3333333333333357  0.8750000000000000  0.1467763379882641   F   F   F
  0.5001058402499324  0.7832543466091286  0.2968743278563392   T   T   T
  0.4999976639328576  0.5290466686199733  0.1895761637574985   F   F   F
  0.6668315420818242  0.3743838111364601  0.4260025383130648   T   T   T
  0.8333589456243892  0.7278807756608555  0.3909993842442637   T   T   T
  0.6666751834749789  0.6460659863711652  0.2475757550105721   T   T   T
  0.8332545564248308  0.5385116783584484  0.3974477231725902   T   T   T
  0.8333333333333357  0.4710102043967765  0.0851486940133555   F   F   F
  0.8333339558353259  0.0290462541212847  0.1895758119370538   F   F   F
  0.6666666666666643  0.1250000000000000  0.1235725562656853   F   F   F
  0.3333333333333357  0.3750000000000000  0.1467763379882641   F   F   F
  0.8333491886879918  0.9747941495156813  0.2779612463590789   T   T   T
  0.4999651135311071  0.2831508978161455  0.2967564898028177   T   T   T
  0.6667019513274353  0.6098478498534327  0.3241675808649573   T   T   T
  0.8333333409382341  0.7209531152421449  0.1895756052193645   F   F   F
  0.8333786178696294  0.7833220955965278  0.2967445795017563   T   T   T
  0.6666666666666643  0.8750000000000000  0.1467763379882641   F   F   F
  0.6666655358647100  0.8750000108504334  0.2250883423864175   F   F   F
  0.8333333008508301  0.5290468981117665  0.1895759154731361   F   F   F
  0.6666666666666643  0.6250000000000000  0.0467248317610185   F   F   F
  0.6666666666666643  0.6250000000000000  0.1235725562656853   F   F   F
  0.8333333333333357  0.9710102043967765  0.0851486940133555   F   F   F
  0.8333333333333357  0.7789897956032235  0.0851486940133555   F   F   F
  0.6665655477904222  0.4023792266195265  0.3489465143009066   T   T   T
  0.5000200467834561  0.4749818306019803  0.2782174849225203   T   T   T
  0.5000821605604330  0.0388213689162472  0.3976180891875123   T   T   T
  0.8332340885482102  0.2280806139172011  0.3894859591599909   T   T   T
  0.3333881716701093  0.1082541235269968  0.3237254402240902   T   T   T
  0.6664962872630846  0.1468789290065213  0.2474392156065823   T   T   T
  0.8332974633562061  0.4747999992158292  0.2781597157762660   T   T   T
  0.8332966481289485  0.2831534954245987  0.2967750405970077   T   T   T
  0.6666666666666643  0.3750000000000000  0.1467763379882641   F   F   F
  0.6666664721965994  0.3750001394610554  0.2250885421256194   F   F   F
  0.8333336160653568  0.2209531548581329  0.1895755782756444   F   F   F
  0.6666666666666643  0.1250000000000000  0.0467248317610185   F   F   F
  0.3333326882537072  0.3749997926392740  0.2250885499289598   F   F   F
  0.6666358545681484  0.9009712087516224  0.3491948726981436   T   T   T
  0.4999980417944865  0.0290462347966568  0.1895760715474884   F   F   F
  0.1666659623339084  0.7209538630219027  0.1895756713862576   F   F   F
  1.0001598917589669  0.1468564384336215  0.2474514916329580   T   T   T
  0.1666659175182925  0.5290462010831961  0.1895759780398522   F   F   F
  0.0000000000000000  0.6250000000000000  0.0467248317610185   F   F   F
  0.4999988243319552  0.2209529651499486  0.1895755725505499   F   F   F
  0.1666666666666643  0.9710102043967765  0.0851486940133555   F   F   F
  0.1666666666666643  0.7789897956032235  0.0851486940133555   F   F   F
 -0.0000224782833260  0.4023297606699731  0.3489497683766627   T   T   T
  0.9998163489400550  0.3738251320425011  0.4259294084803981   T   T   T
  0.1666897167697357  0.2279481049074757  0.3895703381579896   T   T   T
  0.1666603117343304  0.0388906081471459  0.3975992688452595   T   T   T
 -0.0002432128937365  0.1081778560763321  0.3235946518698932   T   T   T
  0.0000003549571299  0.8750000107713112  0.2250882234763902   F   F   F
  0.1666079250305118  0.4749710137074651  0.2782299917080874   T   T   T
 -0.1021759466638467  0.5865517739333527  0.5003054653683670   T   T   T
  0.0000000000000000  0.3750000000000000  0.1467763379882641   F   F   F
  0.1666548350627499  0.2831477349962911  0.2967377350547547   T   T   T
  0.0000007107164886  0.3749999603060230  0.2250885125878732   F   F   F
  0.1666663027958614  0.2209539505437224  0.1895756072453514   F   F   F
  0.1666663400494306  0.0290460185855896  0.1895759024921872   F   F   F
  0.0000000000000000  0.1250000000000000  0.0467248317610185   F   F   F
  0.0000000000000000  0.1250000000000000  0.1235725562656853   F   F   F
  0.1666666666666643  0.4710102043967765  0.0851486940133555   F   F   F
  0.1666666666666643  0.2789897956032235  0.0851486940133555   F   F   F
  0.0000000000000000  0.8750000000000000  0.1467763379882641   F   F   F
  0.1665214874012312  0.7832524591405100  0.2968859740970619   T   T   T
  0.0000000000000000  0.6250000000000000  0.1235725562656853   F   F   F
  0.6668315701285241  0.1081311751427826  0.3236152078189593   T   T   T
  0.1667408178249985  0.5385363750986356  0.3979095210501182   T   T   T
  0.5000000000000000  0.2789897956032235  0.0851486940133555   F   F   F
  0.1665170580622685  0.7281208144633878  0.3911771389447393   T   T   T
  1.0000162544626936  0.8750831757083918  0.4263551125986876   T   T   T
  0.3333333333333357  0.1250000000000000  0.1235725562656853   F   F   F
  0.9999562847896283  0.6460716598524013  0.2475708410558049   T   T   T
  0.5000000000000000  0.4710102043967765  0.0851486940133555   F   F   F
  0.0000494473596269  0.9011517044653486  0.3491957048874238   T   T   T
  0.0000330220712924  0.6097757965759479  0.3241409554526862   T   T   T
  0.1667640070808896  0.9746554536746896  0.2778519484764995   T   T   T
  0.3333333333333357  0.1250000000000000  0.0467248317610185   F   F   F
  0.6666154984880043  0.8796156875901809  0.2876584717666205   T   T   T
  0.8333752751987493  0.6294377993391168  0.2858141351578331   T   T   T
  0.3333146999606572  0.8793637334757161  0.2876720637231001   T   T   T
  0.6666655568862668  0.6249997720375131  0.1847577838516319   F   F   F
  0.3333902908223338  0.1322582690022479  0.3849874020538298   T   T   T
  0.8333333333333357  0.6250000000000000  0.0851486940133555   F   F   F
  0.6666666666666643  0.8750000000000000  0.0851486940133555   F   F   F
  0.8333311666192106  0.8749995704976669  0.1858642171120021   F   F   F
  0.1666807391313332  0.1292931551639989  0.2855338995562371   T   T   T
  0.1666666847735583  0.3750001305958783  0.1858643915636921   F   F   F
  0.6664678083917681  0.6324256666350230  0.3855463992596500   T   T   T
  0.3333229865269547  0.3795588782859804  0.2876388091331449   T   T   T
  0.4999828420843032  0.1292981608673890  0.2855230197176529   T   T   T
  0.8333165610239304  0.8836136930275947  0.3880586181103816   T   T   T
  0.3333354546060130  0.1249999476819220  0.1847578122735502   F   F   F
  0.0000000000000000  0.3750000000000000  0.0851486940133555   F   F   F
  0.9999970987911158  0.1250000184490408  0.1847578466783704   F   F   F
  0.3333333333333357  0.3750000000000000  0.0851486940133555   F   F   F
  0.1666748216701694  0.3837252631397262  0.3877654508799528   T   T   T
  0.4999193807758626  0.3837868659535874  0.3877991293100354   T   T   T
  0.1666666666666643  0.1250000000000000  0.0851486940133555   F   F   F
  0.5000014304295636  0.3749999974283293  0.1858644222348644   F   F   F
  0.5000000000000000  0.1250000000000000  0.0851486940133555   F   F   F
  0.1666666666666643  0.6250000000000000  0.0851486940133555   F   F   F
  0.9999371428008744  0.3794416857382624  0.2876071019732607   T   T   T
  0.5000005790671146  0.8749996008049955  0.1858647103970161   F   F   F
  0.3332206820447180  0.6324671103488122  0.3855955019616416   T   T   T
  0.1666651530605830  0.8837256159685906  0.3880881943674317   T   T   T
  0.3333348655297959  0.6249998188937667  0.1847577531331055   F   F   F
  0.9999968754065039  0.6249998164331720  0.1847577848474051   F   F   F
  0.8333333333333357  0.1250000000000000  0.0851486940133555   F   F   F
  0.6666666666666643  0.3750000000000000  0.0851486940133555   F   F   F
  0.1666668975657561  0.8749998441626324  0.1858646099702742   F   F   F
  0.9999963492530622  0.6323687059503251  0.3856447222688032   T   T   T
  0.6666243319117413  0.1322072778101300  0.3848931519504200   T   T   T
  0.6666662687465629  0.1249996349829204  0.1847578301666214   F   F   F
  0.0000000000000000  0.8750000000000000  0.0851486940133555   F   F   F
  0.8332979651441641  0.1294583177726608  0.2854177247183320   T   T   T
  0.6666676541477334  0.3794334953346965  0.2875955537801008   T   T   T
  0.3333333333333357  0.8750000000000000  0.0851486940133555   F   F   F
  0.5000000000000000  0.6250000000000000  0.0851486940133555   F   F   F
  1.0000479280156864  0.1322792614551118  0.3848672442562288   T   T   T
  0.4999929237512922  0.6295979833157366  0.2856962601421906   T   T   T
  0.1666157610885592  0.6295948975196142  0.2856811536505317   T   T   T
  0.8333316115610666  0.3750001538755701  0.1858644410325545   F   F   F
  1.0000747595869752  0.8796229802252866  0.2876632883862354   T   T   T
  0.8332442029849303  0.3835830360095893  0.3876612993369242   T   T   T
  0.4999886421584174  0.8836795246091592  0.3880972505345661   T   T   T
Cartesian
  0.0000000000000000  0.0000000000000000  0.0000000000000000
  0.0000000000000000  0.0000000000000000  0.0000000000000000
  0.0000000000000000  0.0000000000000000  0.0000000000000000
  0.0000000000000000  0.0000000000000000  0.0000000000000000
  0.0000000000000000  0.0000000000000000  0.0000000000000000
  0.0000000000000000  0.0000000000000000  0.0000000000000000
  0.0000000000000000  0.0000000000000000  0.0000000000000000
  0.0000000000000000  0.0000000000000000  0.0000000000000000
  0.0000000000000000  0.0000000000000000  0.0000000000000000
  0.0000000000000000  0.0000000000000000  0.0000000000000000
  0.0000000000000000  0.0000000000000000  0.0000000000000000
  0.0000000000000000  0.0000000000000000  0.0000000000000000
  0.0000000000000000  0.0000000000000000  0.0000000000000000
  0.0000000000000000  0.0000000000000000  0.0000000000000000
  0.0000000000000000  0.0000000000000000  0.0000000000000000
  0.0000000000000000  0.0000000000000000  0.0000000000000000
  0.0000000000000000  0.0000000000000000  0.0000000000000000
  0.0000000000000000  0.0000000000000000  0.0000000000000000
  0.0000000000000000  0.0000000000000000  0.0000000000000000
  0.0000000000000000  0.0000000000000000  0.0000000000000000
  0.0000000000000000  0.0000000000000000  0.0000000000000000
  0.0000000000000000  0.0000000000000000  0.0000000000000000
  0.0000000000000000  0.0000000000000000  0.0000000000000000
  0.0000000000000000  0.0000000000000000  0.0000000000000000
  0.0000000000000000  0.0000000000000000  0.0000000000000000
  0.0000000000000000  0.0000000000000000  0.0000000000000000
  0.0000000000000000  0.0000000000000000  0.0000000000000000
  0.0000000000000000  0.0000000000000000  0.0000000000000000
  0.0000000000000000  0.0000000000000000  0.0000000000000000
  0.0000000000000000  0.0000000000000000  0.0000000000000000
  0.0000000000000000  0.0000000000000000  0.0000000000000000
  0.0000000000000000  0.0000000000000000  0.0000000000000000
  0.0000000000000000  0.0000000000000000  0.0000000000000000
  0.0000000000000000  0.0000000000000000  0.0000000000000000
  0.0000000000000000  0.0000000000000000  0.0000000000000000
  0.0000000000000000  0.0000000000000000  0.0000000000000000
  0.0000000000000000  0.0000000000000000  0.0000000000000000
  0.0000000000000000  0.0000000000000000  0.0000000000000000
  0.0000000000000000  0.0000000000000000  0.0000000000000000
  0.0000000000000000  0.0000000000000000  0.0000000000000000
  0.0000000000000000  0.0000000000000000  0.0000000000000000
  0.0000000000000000  0.0000000000000000  0.0000000000000000
  0.0000000000000000  0.0000000000000000  0.0000000000000000
  0.0000000000000000  0.0000000000000000  0.0000000000000000
  0.0000000000000000  0.0000000000000000  0.0000000000000000
  0.0000000000000000  0.0000000000000000  0.0000000000000000
  0.0000000000000000  0.0000000000000000  0.0000000000000000
  0.0000000000000000  0.0000000000000000  0.0000000000000000
  0.0000000000000000  0.0000000000000000  0.0000000000000000
  0.0000000000000000  0.0000000000000000  0.0000000000000000
  0.0000000000000000  0.0000000000000000  0.0000000000000000
  0.0000000000000000  0.0000000000000000  0.0000000000000000
  0.0000000000000000  0.0000000000000000  0.0000000000000000
  0.0000000000000000  0.0000000000000000  0.0000000000000000
  0.0000000000000000  0.0000000000000000  0.0000000000000000
  0.0000000000000000  0.0000000000000000  0.0000000000000000
  0.0000000000000000  0.0000000000000000  0.0000000000000000
  0.0000000000000000  0.0000000000000000  0.0000000000000000
  0.0000000000000000  0.0000000000000000  0.0000000000000000
  0.0000000000000000  0.0000000000000000  0.0000000000000000
  0.0000000000000000  0.0000000000000000  0.0000000000000000
  0.0000000000000000  0.0000000000000000  0.0000000000000000
  0.0000000000000000  0.0000000000000000  0.0000000000000000
  0.0000000000000000  0.0000000000000000  0.0000000000000000
  0.0000000000000000  0.0000000000000000  0.0000000000000000
  0.0000000000000000  0.0000000000000000  0.0000000000000000
  0.0000000000000000  0.0000000000000000  0.0000000000000000
  0.0000000000000000  0.0000000000000000  0.0000000000000000
  0.0000000000000000  0.0000000000000000  0.0000000000000000
  0.0000000000000000  0.0000000000000000  0.0000000000000000
  0.0000000000000000  0.0000000000000000  0.0000000000000000
  0.0000000000000000  0.0000000000000000  0.0000000000000000
  0.0000000000000000  0.0000000000000000  0.0000000000000000
  0.0000000000000000  0.0000000000000000  0.0000000000000000
  0.0000000000000000  0.0000000000000000  0.0000000000000000
  0.0000000000000000  0.0000000000000000  0.0000000000000000
  0.0000000000000000  0.0000000000000000  0.0000000000000000
  0.0000000000000000  0.0000000000000000  0.0000000000000000
  0.0000000000000000  0.0000000000000000  0.0000000000000000
  0.0000000000000000  0.0000000000000000  0.0000000000000000
  0.0000000000000000  0.0000000000000000  0.0000000000000000
  0.0000000000000000  0.0000000000000000  0.0000000000000000
  0.0000000000000000  0.0000000000000000  0.0000000000000000
  0.0000000000000000  0.0000000000000000  0.0000000000000000
  0.0000000000000000  0.0000000000000000  0.0000000000000000
  0.0000000000000000  0.0000000000000000  0.0000000000000000
  0.0000000000000000  0.0000000000000000  0.0000000000000000
  0.0000000000000000  0.0000000000000000  0.0000000000000000
  0.0000000000000000  0.0000000000000000  0.0000000000000000
  0.0000000000000000  0.0000000000000000  0.0000000000000000
  0.0000000000000000  0.0000000000000000  0.0000000000000000
  0.0000000000000000  0.0000000000000000  0.0000000000000000
  0.0000000000000000  0.0000000000000000  0.0000000000000000
  0.0000000000000000  0.0000000000000000  0.0000000000000000
  0.0000000000000000  0.0000000000000000  0.0000000000000000
  0.0000000000000000  0.0000000000000000  0.0000000000000000
  0.0000000000000000  0.0000000000000000  0.0000000000000000
  0.0000000000000000  0.0000000000000000  0.0000000000000000
  0.0000000000000000  0.0000000000000000  0.0000000000000000
  0.0000000000000000  0.0000000000000000  0.0000000000000000
  0.0000000000000000  0.0000000000000000  0.0000000000000000
  0.0000000000000000  0.0000000000000000  0.0000000000000000
  0.0000000000000000  0.0000000000000000  0.0000000000000000
  0.0000000000000000  0.0000000000000000  0.0000000000000000
  0.0000000000000000  0.0000000000000000  0.0000000000000000
  0.0000000000000000  0.0000000000000000  0.0000000000000000
  0.0000000000000000  0.0000000000000000  0.0000000000000000
  0.0000000000000000  0.0000000000000000  0.0000000000000000
  0.0000000000000000  0.0000000000000000  0.0000000000000000
  0.0000000000000000  0.0000000000000000  0.0000000000000000
  0.0000000000000000  0.0000000000000000  0.0000000000000000
  0.0000000000000000  0.0000000000000000  0.0000000000000000
  0.0000000000000000  0.0000000000000000  0.0000000000000000
  0.0000000000000000  0.0000000000000000  0.0000000000000000
  0.0000000000000000  0.0000000000000000  0.0000000000000000
  0.0000000000000000  0.0000000000000000  0.0000000000000000
  0.0000000000000000  0.0000000000000000  0.0000000000000000
  0.0000000000000000  0.0000000000000000  0.0000000000000000
  0.0000000000000000  0.0000000000000000  0.0000000000000000
  0.0000000000000000  0.0000000000000000  0.0000000000000000
  0.0000000000000000  0.0000000000000000  0.0000000000000000
  0.0000000000000000  0.0000000000000000  0.0000000000000000
  0.0000000000000000  0.0000000000000000  0.0000000000000000
  0.0000000000000000  0.0000000000000000  0.0000000000000000
  0.0000000000000000  0.0000000000000000  0.0000000000000000
  0.0000000000000000  0.0000000000000000  0.0000000000000000
  0.0000000000000000  0.0000000000000000  0.0000000000000000
  0.0000000000000000  0.0000000000000000  0.0000000000000000
  0.0000000000000000  0.0000000000000000  0.0000000000000000
  0.0000000000000000  0.0000000000000000  0.0000000000000000
  0.0000000000000000  0.0000000000000000  0.0000000000000000
  0.0000000000000000  0.0000000000000000  0.0000000000000000
  0.0000000000000000  0.0000000000000000  0.0000000000000000
  0.0000000000000000  0.0000000000000000  0.0000000000000000
  0.0000000000000000  0.0000000000000000  0.0000000000000000
  0.0000000000000000  0.0000000000000000  0.0000000000000000
  0.0000000000000000  0.0000000000000000  0.0000000000000000
  0.0000000000000000  0.0000000000000000  0.0000000000000000
  0.0000000000000000  0.0000000000000000  0.0000000000000000
  0.0000000000000000  0.0000000000000000  0.0000000000000000
  0.0000000000000000  0.0000000000000000  0.0000000000000000
  0.0000000000000000  0.0000000000000000  0.0000000000000000
  0.0000000000000000  0.0000000000000000  0.0000000000000000
  0.0000000000000000  0.0000000000000000  0.0000000000000000
  0.0000000000000000  0.0000000000000000  0.0000000000000000
  0.0000000000000000  0.0000000000000000  0.0000000000000000
