Pd                                      
    1.000000000000000     
     3.8907456166625929   -0.0000000000000000    0.0000000000000002
     0.0000000000000006    3.8907456166625929    0.0000000000000002
     0.0000000000000000    0.0000000000000000    3.8907456166625929
   Pd
     4
Direct
  0.0000000000000000  0.0000000000000000  0.0000000000000000
  0.0000000000000000  0.5000000000000000  0.5000000000000000
  0.5000000000000000  0.0000000000000000  0.5000000000000000
  0.5000000000000000  0.5000000000000000  0.0000000000000000
 
  0.00000000E+00  0.00000000E+00  0.00000000E+00
  0.00000000E+00  0.00000000E+00  0.00000000E+00
  0.00000000E+00  0.00000000E+00  0.00000000E+00
  0.00000000E+00  0.00000000E+00  0.00000000E+00
