C  O  Pd
 1.0000000000000000
    12.2143708368485502    0.0000000000000000    0.0000000000000007
     0.0000000000000017   10.8116922467861709    0.0000000000000007
     0.0000000000000000    0.0000000000000000   29.2503334901734533
 C   O   Pd 
   1  49  56
Selective dynamics
Direct
  0.4922249816688334 -0.1898873644975818  0.4293390346459841   T   T   T
  0.4990794923223790  0.1249180203332882  0.3140080960776376   T   T   T
  0.4982981053793836  0.3775956226805040  0.3138543806965416   T   T   T
  0.5000001310433297  0.1253564178816644  0.2086348144247711   T   T   T
  0.5000001342961156  0.3746434636837175  0.2086347507080587   T   T   T
  0.5000000000000000  0.1250000000000000  0.1034790374483450   F   F   F
  0.5000000000000000  0.3750000000000000  0.1034790374483450   F   F   F
  0.2494875037750310  0.8762102766489180  0.3141042782148984   T   T   T
  0.2500000941816193  0.6253566118971372  0.2086348636703901   T   T   T
  0.2500000540154024  0.8746433924634129  0.2086348668591089   T   T   T
  0.2500000000000000  0.6250000000000000  0.1034790374483450   F   F   F
  0.2482591147751312  0.6252051145393162  0.3144202438904142   T   T   T
  0.5000000000000000  0.8750000000000001  0.1034790374483450   F   F   F
  0.5000000000000000  0.6250000000000000  0.1034790374483450   F   F   F
  0.4999998141907326  0.8746432123910085  0.2086349067849812   T   T   T
  0.4999999845274433  0.6253566050681870  0.2086348949301247   T   T   T
  0.7488466502694229  0.6252450383675621  0.3145424074463623   T   T   T
  0.7486615769246767  0.8763836446979110  0.3142628129060583   T   T   T
  0.7500001763429768  0.6253564403181003  0.2086347184870002   T   T   T
  0.7500001683851466  0.8746432931424059  0.2086348553162809   T   T   T
  0.7500000000000000  0.6250000000000000  0.1034790374483450   F   F   F
  0.2500000000000000  0.8750000000000001  0.1034790374483450   F   F   F
  0.7500000000000000  0.8750000000000001  0.1034790374483450   F   F   F
  0.7499999407901679  0.1253564590539261  0.2086346494759109   F   F   F
  0.7490598731678617  0.1251075862637249  0.3145445964472661   T   T   T
  0.4890909055357876 -0.1357224098563474  0.4638358597226763   T   T   T
  0.7500000113728454  0.3746434304486337  0.2086345460683278   F   F   F
 -0.0013692951256431  0.6252125168048088  0.3146703414697810   T   T   T
  0.7500000000000000  0.3750000000000000  0.1034790374483450   F   F   F
  0.4984798058211121  0.6278535222106860  0.3144566872519493   T   T   T
  0.4992308017334119  0.8770462851825189  0.3123996310884247   T   T   T
  0.7482321643314042  0.3771063469186677  0.3141823334812426   T   T   T
  0.2493785202457109  0.1248212749779631  0.3144276881272374   T   T   T
  0.2489659307288770  0.3769009940574790  0.3141374170263593   T   T   T
  0.0000003093195438  0.8746432006014753  0.2086347012706246   T   T   T
  0.0000001717890977  0.6253564676804197  0.2086346535078811   F   F   F
  0.9991078122609219  0.8767269901788375  0.3138566649401169   T   T   T
  0.9991016253054336  0.1246258591936207  0.3144444550088631   T   T   T
  0.0000000000000000  0.6250000000000000  0.1034790374483450   F   F   F
  0.0000000680918900  0.1253566840092099  0.2086346773957300   T   T   T
  0.0000000906673265  0.3746433398517112  0.2086346491200444   F   F   F
  0.2500000000000000  0.3750000000000000  0.1034790374483450   F   F   F
 -0.0000000000000000  0.8750000000000001  0.1034790374483450   F   F   F
  0.2500001565921251  0.3746432215490525  0.2086349227437580   T   T   T
  0.2500000000000000  0.1250000000000000  0.1034790374483450   F   F   F
  0.2500002121287271  0.1253566769138708  0.2086349069410681   T   T   T
  0.0000000000000000  0.3750000000000000  0.1034790374483450   F   F   F
  0.7500000000000000  0.1250000000000000  0.1034790374483450   F   F   F
  0.9986277309496954  0.3764593218866265  0.3140822260076506   T   T   T
  0.0000000000000000  0.1250000000000000  0.1034790374483450   F   F   F
  0.7494813630737698  0.2502038319971466  0.2620020488325165   T   T   T
  0.7498895118289279  0.7504012831384432  0.2619743893680926   T   T   T
  0.1250000490227787  0.9999999537391714  0.2083512510515163   F   F   F
  0.7500001417602953  0.7499994873041090  0.1560720019688409   F   F   F
  0.8750000000000000  0.0000000000000000  0.1034790374483450   F   F   F
  0.7499999492943173  0.2499998973890912  0.1560719005187454   F   F   F
  0.8736335892034954  0.5009708386848611  0.3132491613693874   T   T   T
  0.1250000000000000  0.5000000000000000  0.1034790374483450   F   F   F
  0.1250000000000000  0.0000000000000000  0.1034790374483450   F   F   F
  0.8739400993221305  0.0006000156299313  0.3129424173506614   T   T   T
  0.8750002628252658  0.9999999076726724  0.2083511414037477   F   F   F
  0.0000000305378639  0.2499999899091724  0.1560719922121782   F   F   F
  0.6250000282706359  0.5000001736904404  0.2083512799526737   F   F   F
  0.7472418171319866  0.2525008836920957  0.3702724074861207   T   T   T
  0.4959931368122981  0.7350704994621645  0.3742815432668772   T   T   T
  0.9996273207659105  0.2498947864460197  0.2619159276351919   T   T   T
  0.8750003526753075  0.4999998740212845  0.2083512073452132   F   F   F
  0.7500000000000000  0.7500000000000000  0.0512814666029016   F   F   F
  0.8750000000000000  0.5000000000000000  0.1034790374483450   F   F   F
  0.9980401016203985  0.2523598746025388  0.3701687483840824   T   T   T
  0.3744210742668679  1.0004579828785327  0.3119766215135227   T   T   T
  0.7398905777213303  0.7500472032973056  0.3705222901766033   T   T   T
  0.6234513341576581  0.5013662993030769  0.3129671295222819   T   T   T
  0.3750000000000000  0.0000000000000000  0.1034790374483450   F   F   F
  0.0000000000000000  0.2500000000000000  0.0512814666029016   F   F   F
  0.1244998735722622  1.0005539838510487  0.3129300140623951   T   T   T
  0.0000000000000000  0.7500000000000000  0.0512814666029016   F   F   F
 -0.0004586425388155  0.7501594495338892  0.2618830105447749   T   T   T
  0.7500000000000000  0.2500000000000000  0.0512814666029016   F   F   F
  0.2500001174677877  0.2500001432992012  0.1560720953180006   F   F   F
  0.5000000000000000  0.2500000000000000  0.0512814666029016   F   F   F
  0.2500000128051262  0.7499998164578953  0.1560720125206892   F   F   F
  0.2502264059926638  0.2520604769957795  0.3702039667077876   T   T   T
  0.2500000000000000  0.2500000000000000  0.0512814666029016   F   F   F
  0.3750000000000000  0.5000000000000000  0.1034790374483450   F   F   F
  0.3749999766530777  0.0000000103848568  0.2083513401927624   F   F   F
  0.3749999192595975  0.4999999237622314  0.2083514410374566   F   F   F
  0.6250000000000000  0.0000000000000000  0.1034790374483450   F   F   F
  0.2500000000000000  0.7500000000000000  0.0512814666029016   F   F   F
  0.4995711856178506  0.7516369945803648  0.2618055921990536   T   T   T
  0.6250001596235294  0.9999998419141339  0.2083511880761280   F   F   F
  0.4999999644933695  0.7499995734433390  0.1560719522146622   F   F   F
  0.1250001864597102  0.4999997469804928  0.2083513416983053   F   F   F
  0.6250000000000000  0.5000000000000000  0.1034790374483450   F   F   F
  0.5000000000000000  0.7500000000000000  0.0512814666029016   F   F   F
  0.4981615830939127  0.2519801901177528  0.3698730245151609   T   T   T
  0.1235333926346785  0.5009156338521570  0.3132425550112629   T   T   T
  0.6239284565385957  0.0007366094551316  0.3121123116738596   T   T   T
  0.4991994415807143  0.2504639028639374  0.2618570087925229   T   T   T
  0.9993513907073123  0.7526499578271219  0.3698918353038254   T   T   T
  0.5000000770400611  0.2499999680531972  0.1560718497316933   F   F   F
  0.2488384123464676  0.7503538090533487  0.2618513578045137   T   T   T
  0.0000002340500750  0.7499998236723172  0.1560719263822670   F   F   F
  0.3734011763084668  0.5013619643518528  0.3127743323963596   T   T   T
  0.2514229196845264  0.7504738194887224  0.3705376542208260   T   T   T
  0.2494696178244117  0.2503501524795434  0.2619763955390754   T   T   T
Cartesian
  0.0000000000000000  0.0000000000000000  0.0000000000000000
  0.0000000000000000  0.0000000000000000  0.0000000000000000
  0.0000000000000000  0.0000000000000000  0.0000000000000000
  0.0000000000000000  0.0000000000000000  0.0000000000000000
  0.0000000000000000  0.0000000000000000  0.0000000000000000
  0.0000000000000000  0.0000000000000000  0.0000000000000000
  0.0000000000000000  0.0000000000000000  0.0000000000000000
  0.0000000000000000  0.0000000000000000  0.0000000000000000
  0.0000000000000000  0.0000000000000000  0.0000000000000000
  0.0000000000000000  0.0000000000000000  0.0000000000000000
  0.0000000000000000  0.0000000000000000  0.0000000000000000
  0.0000000000000000  0.0000000000000000  0.0000000000000000
  0.0000000000000000  0.0000000000000000  0.0000000000000000
  0.0000000000000000  0.0000000000000000  0.0000000000000000
  0.0000000000000000  0.0000000000000000  0.0000000000000000
  0.0000000000000000  0.0000000000000000  0.0000000000000000
  0.0000000000000000  0.0000000000000000  0.0000000000000000
  0.0000000000000000  0.0000000000000000  0.0000000000000000
  0.0000000000000000  0.0000000000000000  0.0000000000000000
  0.0000000000000000  0.0000000000000000  0.0000000000000000
  0.0000000000000000  0.0000000000000000  0.0000000000000000
  0.0000000000000000  0.0000000000000000  0.0000000000000000
  0.0000000000000000  0.0000000000000000  0.0000000000000000
  0.0000000000000000  0.0000000000000000  0.0000000000000000
  0.0000000000000000  0.0000000000000000  0.0000000000000000
  0.0000000000000000  0.0000000000000000  0.0000000000000000
  0.0000000000000000  0.0000000000000000  0.0000000000000000
  0.0000000000000000  0.0000000000000000  0.0000000000000000
  0.0000000000000000  0.0000000000000000  0.0000000000000000
  0.0000000000000000  0.0000000000000000  0.0000000000000000
  0.0000000000000000  0.0000000000000000  0.0000000000000000
  0.0000000000000000  0.0000000000000000  0.0000000000000000
  0.0000000000000000  0.0000000000000000  0.0000000000000000
  0.0000000000000000  0.0000000000000000  0.0000000000000000
  0.0000000000000000  0.0000000000000000  0.0000000000000000
  0.0000000000000000  0.0000000000000000  0.0000000000000000
  0.0000000000000000  0.0000000000000000  0.0000000000000000
  0.0000000000000000  0.0000000000000000  0.0000000000000000
  0.0000000000000000  0.0000000000000000  0.0000000000000000
  0.0000000000000000  0.0000000000000000  0.0000000000000000
  0.0000000000000000  0.0000000000000000  0.0000000000000000
  0.0000000000000000  0.0000000000000000  0.0000000000000000
  0.0000000000000000  0.0000000000000000  0.0000000000000000
  0.0000000000000000  0.0000000000000000  0.0000000000000000
  0.0000000000000000  0.0000000000000000  0.0000000000000000
  0.0000000000000000  0.0000000000000000  0.0000000000000000
  0.0000000000000000  0.0000000000000000  0.0000000000000000
  0.0000000000000000  0.0000000000000000  0.0000000000000000
  0.0000000000000000  0.0000000000000000  0.0000000000000000
  0.0000000000000000  0.0000000000000000  0.0000000000000000
  0.0000000000000000  0.0000000000000000  0.0000000000000000
  0.0000000000000000  0.0000000000000000  0.0000000000000000
  0.0000000000000000  0.0000000000000000  0.0000000000000000
  0.0000000000000000  0.0000000000000000  0.0000000000000000
  0.0000000000000000  0.0000000000000000  0.0000000000000000
  0.0000000000000000  0.0000000000000000  0.0000000000000000
  0.0000000000000000  0.0000000000000000  0.0000000000000000
  0.0000000000000000  0.0000000000000000  0.0000000000000000
  0.0000000000000000  0.0000000000000000  0.0000000000000000
  0.0000000000000000  0.0000000000000000  0.0000000000000000
  0.0000000000000000  0.0000000000000000  0.0000000000000000
  0.0000000000000000  0.0000000000000000  0.0000000000000000
  0.0000000000000000  0.0000000000000000  0.0000000000000000
  0.0000000000000000  0.0000000000000000  0.0000000000000000
  0.0000000000000000  0.0000000000000000  0.0000000000000000
  0.0000000000000000  0.0000000000000000  0.0000000000000000
  0.0000000000000000  0.0000000000000000  0.0000000000000000
  0.0000000000000000  0.0000000000000000  0.0000000000000000
  0.0000000000000000  0.0000000000000000  0.0000000000000000
  0.0000000000000000  0.0000000000000000  0.0000000000000000
  0.0000000000000000  0.0000000000000000  0.0000000000000000
  0.0000000000000000  0.0000000000000000  0.0000000000000000
  0.0000000000000000  0.0000000000000000  0.0000000000000000
  0.0000000000000000  0.0000000000000000  0.0000000000000000
  0.0000000000000000  0.0000000000000000  0.0000000000000000
  0.0000000000000000  0.0000000000000000  0.0000000000000000
  0.0000000000000000  0.0000000000000000  0.0000000000000000
  0.0000000000000000  0.0000000000000000  0.0000000000000000
  0.0000000000000000  0.0000000000000000  0.0000000000000000
  0.0000000000000000  0.0000000000000000  0.0000000000000000
  0.0000000000000000  0.0000000000000000  0.0000000000000000
  0.0000000000000000  0.0000000000000000  0.0000000000000000
  0.0000000000000000  0.0000000000000000  0.0000000000000000
  0.0000000000000000  0.0000000000000000  0.0000000000000000
  0.0000000000000000  0.0000000000000000  0.0000000000000000
  0.0000000000000000  0.0000000000000000  0.0000000000000000
  0.0000000000000000  0.0000000000000000  0.0000000000000000
  0.0000000000000000  0.0000000000000000  0.0000000000000000
  0.0000000000000000  0.0000000000000000  0.0000000000000000
  0.0000000000000000  0.0000000000000000  0.0000000000000000
  0.0000000000000000  0.0000000000000000  0.0000000000000000
  0.0000000000000000  0.0000000000000000  0.0000000000000000
  0.0000000000000000  0.0000000000000000  0.0000000000000000
  0.0000000000000000  0.0000000000000000  0.0000000000000000
  0.0000000000000000  0.0000000000000000  0.0000000000000000
  0.0000000000000000  0.0000000000000000  0.0000000000000000
  0.0000000000000000  0.0000000000000000  0.0000000000000000
  0.0000000000000000  0.0000000000000000  0.0000000000000000
  0.0000000000000000  0.0000000000000000  0.0000000000000000
  0.0000000000000000  0.0000000000000000  0.0000000000000000
  0.0000000000000000  0.0000000000000000  0.0000000000000000
  0.0000000000000000  0.0000000000000000  0.0000000000000000
  0.0000000000000000  0.0000000000000000  0.0000000000000000
  0.0000000000000000  0.0000000000000000  0.0000000000000000
  0.0000000000000000  0.0000000000000000  0.0000000000000000
  0.0000000000000000  0.0000000000000000  0.0000000000000000
