C  O  Pd
 1.0000000000000000
    12.2143708368485502    0.0000000000000000    0.0000000000000007
     0.0000000000000017   10.8116922467861709    0.0000000000000007
     0.0000000000000000    0.0000000000000000   29.2503334901734533
 C   O   Pd 
   1  49  56
Selective dynamics
Direct
  0.0226806470922062  0.7068280206754411  0.4305272803293784   T   T   T
  0.5018279637318475  0.1258018408698197  0.3147558787864978   T   T   T
  0.5017450328665732  0.3776126100816747  0.3141658199279692   T   T   T
  0.5001100869799285  0.1258389122365170  0.2089757188609510   T   T   T
  0.5001024673935386  0.3745397358113723  0.2086719196694996   T   T   T
  0.5000000000000000  0.1250000000000000  0.1034790374483450   F   F   F
  0.5000000000000000  0.3750000000000000  0.1034790374483450   F   F   F
  0.2521188219653062  0.8776512845378127  0.3137771798327537   T   T   T
  0.2502073796222676  0.6256700106471458  0.2088854141188113   T   T   T
  0.2502093124822518  0.8744900484021172  0.2086363920904445   T   T   T
  0.2500000000000000  0.6250000000000000  0.1034790374483450   F   F   F
  0.2515767954844721  0.6258553449543111  0.3146244124279018   T   T   T
  0.5000000000000000  0.8750000000000001  0.1034790374483450   F   F   F
  0.5000000000000000  0.6250000000000000  0.1034790374483450   F   F   F
  0.5000722953813974  0.8746141817992068  0.2086782600784369   T   T   T
  0.5000992166051685  0.6257437285452399  0.2089257147292057   T   T   T
  0.7523540716802352  0.6261744858941123  0.3149576461114685   T   T   T
  0.7519397209074715  0.8771189699080990  0.3141831482457686   T   T   T
  0.7499578581341512  0.6257246118238101  0.2089290694023611   T   T   T
  0.7499411244280830  0.8743774701329741  0.2087065234229159   T   T   T
  0.7500000000000000  0.6250000000000000  0.1034790374483450   F   F   F
  0.2500000000000000  0.8750000000000001  0.1034790374483450   F   F   F
  0.7500000000000000  0.8750000000000001  0.1034790374483450   F   F   F
  0.7499999407901679  0.1253564590539261  0.2086346494759109   F   F   F
  0.7519429022826400  0.1255786808886823  0.3145986510615564   T   T   T
  0.0320217878023203  0.6612519089087647  0.4664773990802965   T   T   T
  0.7500000113728454  0.3746434304486337  0.2086345460683278   F   F   F
  0.0017650148094196  0.6249610752813137  0.3127713368407255   T   T   T
  0.7500000000000000  0.3750000000000000  0.1034790374483450   F   F   F
  0.5016613225707761  0.6258439607977390  0.3147526877880749   T   T   T
  0.5015813969528203  0.8774972315575342  0.3142474041786179   T   T   T
  0.7517718063591231  0.3773432505460853  0.3141433161360642   T   T   T
  0.2515135198652052  0.1256466754557364  0.3145785514260687   T   T   T
  0.2516852492832550  0.3776173947311101  0.3141126914227685   T   T   T
  0.0000792343721842  0.8746918392184754  0.2085479532672196   F   F   F
  0.0000001717890977  0.6253564676804197  0.2086346535078811   T   T   T
  1.0019896893024147  0.8752407809699598  0.3134404211411359   T   T   T
  1.0016094206699750  0.1249465322571415  0.3142478786557216   T   T   T
  0.0000000000000000  0.6250000000000000  0.1034790374483450   F   F   F
  0.0000655035462320  0.1255460172471330  0.2087326748219304   T   T   T
  0.0000000906673265  0.3746433398517112  0.2086346491200444   F   F   F
  0.2500000000000000  0.3750000000000000  0.1034790374483450   F   F   F
 -0.0000000000000000  0.8750000000000001  0.1034790374483450   F   F   F
  0.2501304818203691  0.3745608993551062  0.2086812515750581   T   T   T
  0.2500000000000000  0.1250000000000000  0.1034790374483450   F   F   F
  0.2501276630515855  0.1257642295275151  0.2089340518534142   T   T   T
  0.0000000000000000  0.3750000000000000  0.1034790374483450   F   F   F
  0.7500000000000000  0.1250000000000000  0.1034790374483450   F   F   F
  1.0017499208075791  0.3774501411329664  0.3135272290243161   T   T   T
  0.0000000000000000  0.1250000000000000  0.1034790374483450   F   F   F
  0.7508191343152003  0.2506751412340043  0.2619887923767330   T   T   T
  0.7503188896060916  0.7505105409005254  0.2621205711486800   T   T   T
  0.1250000490227787  0.9999999537391714  0.2083512510515163   F   F   F
  0.7500001417602953  0.7499994873041090  0.1560720019688409   F   F   F
  0.8750000000000000  0.0000000000000000  0.1034790374483450   F   F   F
  0.7499999492943173  0.2499998973890912  0.1560719005187454   F   F   F
  0.8769871078791150  0.5017184411196065  0.3120882076167828   T   T   T
  0.1250000000000000  0.5000000000000000  0.1034790374483450   F   F   F
  0.1250000000000000  0.0000000000000000  0.1034790374483450   F   F   F
  0.8765858978026053  0.0014683511684675  0.3125849066599500   T   T   T
  0.8750002628252658  0.9999999076726724  0.2083511414037477   F   F   F
  0.0000000305378639  0.2499999899091724  0.1560719922121782   F   F   F
  0.6250000282706359  0.5000001736904404  0.2083512799526737   F   F   F
  0.7545188421030694  0.2526884829361035  0.3702455912529554   T   T   T
  0.4927683658403345  0.7529061813137899  0.3697749554394683   T   T   T
  1.0008447796627429  0.2505011296003730  0.2618610651265877   T   T   T
  0.8750003526753075  0.4999998740212845  0.2083512073452132   F   F   F
  0.7500000000000000  0.7500000000000000  0.0512814666029016   F   F   F
  0.8750000000000000  0.5000000000000000  0.1034790374483450   F   F   F
  1.0016542210279002  0.2526371614159175  0.3698623758381975   T   T   T
  0.3768601396852287  1.0017692432047349  0.3130992033597336   T   T   T
  0.7742417973878444  0.7551034855084410  0.3698262593068200   T   T   T
  0.6270152150702998  0.5019991942818056  0.3133406653267289   T   T   T
  0.3750000000000000  0.0000000000000000  0.1034790374483450   F   F   F
  0.0000000000000000  0.2500000000000000  0.0512814666029016   F   F   F
  0.1268505204169079  1.0016147720232313  0.3125119207801893   T   T   T
  0.0000000000000000  0.7500000000000000  0.0512814666029016   F   F   F
  0.0007222755223686  0.7491644004592013  0.2616831429498443   T   T   T
  0.7500000000000000  0.2500000000000000  0.0512814666029016   F   F   F
  0.2500001174677877  0.2500001432992012  0.1560720953180006   F   F   F
  0.5000000000000000  0.2500000000000000  0.0512814666029016   F   F   F
  0.2500000128051262  0.7499998164578953  0.1560720125206892   F   F   F
  0.2492836674372527  0.2528972623214862  0.3701934985409329   T   T   T
  0.2500000000000000  0.2500000000000000  0.0512814666029016   F   F   F
  0.3750000000000000  0.5000000000000000  0.1034790374483450   F   F   F
  0.3749999766530777  0.0000000103848568  0.2083513401927624   F   F   F
  0.3749999192595975  0.4999999237622314  0.2083514410374566   F   F   F
  0.6250000000000000  0.0000000000000000  0.1034790374483450   F   F   F
  0.2500000000000000  0.7500000000000000  0.0512814666029016   F   F   F
  0.5010083992556400  0.7507889564924226  0.2620740462413009   T   T   T
  0.6250001596235294  0.9999998419141339  0.2083511880761280   F   F   F
  0.4999999644933695  0.7499995734433390  0.1560719522146622   F   F   F
  0.1250001864597102  0.4999997469804928  0.2083513416983053   F   F   F
  0.6250000000000000  0.5000000000000000  0.1034790374483450   F   F   F
  0.5000000000000000  0.7500000000000000  0.0512814666029016   F   F   F
  0.5003211768321788  0.2530422747170771  0.3701522745118007   T   T   T
  0.1264617036879515  0.5018476554092287  0.3120163044353634   T   T   T
  0.6268327779121751  0.0012575968020776  0.3134435257926620   T   T   T
  0.5011106486032250  0.2508769132905769  0.2621581588901072   T   T   T
  1.0105923874622778  0.7733823072587107  0.3741424560817537   T   T   T
  0.5000000770400611  0.2499999680531972  0.1560718497316933   F   F   F
  0.2516136597089037  0.7505085982437627  0.2620312810654959   T   T   T
  0.0000002340500750  0.7499998236723172  0.1560719263822670   F   F   F
  0.3766757011206689  0.5017004608931092  0.3130290541122447   T   T   T
  0.2489517111878487  0.7555412848798700  0.3708002249169835   T   T   T
  0.2510647777625987  0.2509186652507501  0.2621129274546639   T   T   T
Cartesian
  0.0000000000000000  0.0000000000000000  0.0000000000000000
  0.0000000000000000  0.0000000000000000  0.0000000000000000
  0.0000000000000000  0.0000000000000000  0.0000000000000000
  0.0000000000000000  0.0000000000000000  0.0000000000000000
  0.0000000000000000  0.0000000000000000  0.0000000000000000
  0.0000000000000000  0.0000000000000000  0.0000000000000000
  0.0000000000000000  0.0000000000000000  0.0000000000000000
  0.0000000000000000  0.0000000000000000  0.0000000000000000
  0.0000000000000000  0.0000000000000000  0.0000000000000000
  0.0000000000000000  0.0000000000000000  0.0000000000000000
  0.0000000000000000  0.0000000000000000  0.0000000000000000
  0.0000000000000000  0.0000000000000000  0.0000000000000000
  0.0000000000000000  0.0000000000000000  0.0000000000000000
  0.0000000000000000  0.0000000000000000  0.0000000000000000
  0.0000000000000000  0.0000000000000000  0.0000000000000000
  0.0000000000000000  0.0000000000000000  0.0000000000000000
  0.0000000000000000  0.0000000000000000  0.0000000000000000
  0.0000000000000000  0.0000000000000000  0.0000000000000000
  0.0000000000000000  0.0000000000000000  0.0000000000000000
  0.0000000000000000  0.0000000000000000  0.0000000000000000
  0.0000000000000000  0.0000000000000000  0.0000000000000000
  0.0000000000000000  0.0000000000000000  0.0000000000000000
  0.0000000000000000  0.0000000000000000  0.0000000000000000
  0.0000000000000000  0.0000000000000000  0.0000000000000000
  0.0000000000000000  0.0000000000000000  0.0000000000000000
  0.0000000000000000  0.0000000000000000  0.0000000000000000
  0.0000000000000000  0.0000000000000000  0.0000000000000000
  0.0000000000000000  0.0000000000000000  0.0000000000000000
  0.0000000000000000  0.0000000000000000  0.0000000000000000
  0.0000000000000000  0.0000000000000000  0.0000000000000000
  0.0000000000000000  0.0000000000000000  0.0000000000000000
  0.0000000000000000  0.0000000000000000  0.0000000000000000
  0.0000000000000000  0.0000000000000000  0.0000000000000000
  0.0000000000000000  0.0000000000000000  0.0000000000000000
  0.0000000000000000  0.0000000000000000  0.0000000000000000
  0.0000000000000000  0.0000000000000000  0.0000000000000000
  0.0000000000000000  0.0000000000000000  0.0000000000000000
  0.0000000000000000  0.0000000000000000  0.0000000000000000
  0.0000000000000000  0.0000000000000000  0.0000000000000000
  0.0000000000000000  0.0000000000000000  0.0000000000000000
  0.0000000000000000  0.0000000000000000  0.0000000000000000
  0.0000000000000000  0.0000000000000000  0.0000000000000000
  0.0000000000000000  0.0000000000000000  0.0000000000000000
  0.0000000000000000  0.0000000000000000  0.0000000000000000
  0.0000000000000000  0.0000000000000000  0.0000000000000000
  0.0000000000000000  0.0000000000000000  0.0000000000000000
  0.0000000000000000  0.0000000000000000  0.0000000000000000
  0.0000000000000000  0.0000000000000000  0.0000000000000000
  0.0000000000000000  0.0000000000000000  0.0000000000000000
  0.0000000000000000  0.0000000000000000  0.0000000000000000
  0.0000000000000000  0.0000000000000000  0.0000000000000000
  0.0000000000000000  0.0000000000000000  0.0000000000000000
  0.0000000000000000  0.0000000000000000  0.0000000000000000
  0.0000000000000000  0.0000000000000000  0.0000000000000000
  0.0000000000000000  0.0000000000000000  0.0000000000000000
  0.0000000000000000  0.0000000000000000  0.0000000000000000
  0.0000000000000000  0.0000000000000000  0.0000000000000000
  0.0000000000000000  0.0000000000000000  0.0000000000000000
  0.0000000000000000  0.0000000000000000  0.0000000000000000
  0.0000000000000000  0.0000000000000000  0.0000000000000000
  0.0000000000000000  0.0000000000000000  0.0000000000000000
  0.0000000000000000  0.0000000000000000  0.0000000000000000
  0.0000000000000000  0.0000000000000000  0.0000000000000000
  0.0000000000000000  0.0000000000000000  0.0000000000000000
  0.0000000000000000  0.0000000000000000  0.0000000000000000
  0.0000000000000000  0.0000000000000000  0.0000000000000000
  0.0000000000000000  0.0000000000000000  0.0000000000000000
  0.0000000000000000  0.0000000000000000  0.0000000000000000
  0.0000000000000000  0.0000000000000000  0.0000000000000000
  0.0000000000000000  0.0000000000000000  0.0000000000000000
  0.0000000000000000  0.0000000000000000  0.0000000000000000
  0.0000000000000000  0.0000000000000000  0.0000000000000000
  0.0000000000000000  0.0000000000000000  0.0000000000000000
  0.0000000000000000  0.0000000000000000  0.0000000000000000
  0.0000000000000000  0.0000000000000000  0.0000000000000000
  0.0000000000000000  0.0000000000000000  0.0000000000000000
  0.0000000000000000  0.0000000000000000  0.0000000000000000
  0.0000000000000000  0.0000000000000000  0.0000000000000000
  0.0000000000000000  0.0000000000000000  0.0000000000000000
  0.0000000000000000  0.0000000000000000  0.0000000000000000
  0.0000000000000000  0.0000000000000000  0.0000000000000000
  0.0000000000000000  0.0000000000000000  0.0000000000000000
  0.0000000000000000  0.0000000000000000  0.0000000000000000
  0.0000000000000000  0.0000000000000000  0.0000000000000000
  0.0000000000000000  0.0000000000000000  0.0000000000000000
  0.0000000000000000  0.0000000000000000  0.0000000000000000
  0.0000000000000000  0.0000000000000000  0.0000000000000000
  0.0000000000000000  0.0000000000000000  0.0000000000000000
  0.0000000000000000  0.0000000000000000  0.0000000000000000
  0.0000000000000000  0.0000000000000000  0.0000000000000000
  0.0000000000000000  0.0000000000000000  0.0000000000000000
  0.0000000000000000  0.0000000000000000  0.0000000000000000
  0.0000000000000000  0.0000000000000000  0.0000000000000000
  0.0000000000000000  0.0000000000000000  0.0000000000000000
  0.0000000000000000  0.0000000000000000  0.0000000000000000
  0.0000000000000000  0.0000000000000000  0.0000000000000000
  0.0000000000000000  0.0000000000000000  0.0000000000000000
  0.0000000000000000  0.0000000000000000  0.0000000000000000
  0.0000000000000000  0.0000000000000000  0.0000000000000000
  0.0000000000000000  0.0000000000000000  0.0000000000000000
  0.0000000000000000  0.0000000000000000  0.0000000000000000
  0.0000000000000000  0.0000000000000000  0.0000000000000000
  0.0000000000000000  0.0000000000000000  0.0000000000000000
  0.0000000000000000  0.0000000000000000  0.0000000000000000
  0.0000000000000000  0.0000000000000000  0.0000000000000000
  0.0000000000000000  0.0000000000000000  0.0000000000000000
