C  O  Pd
 1.0000000000000000
    12.2143708368485502    0.0000000000000000    0.0000000000000007
     0.0000000000000017   10.8116922467861709    0.0000000000000007
     0.0000000000000000    0.0000000000000000   29.2503334901734533
 C   O   Pd 
   1  49  56
Selective dynamics
Direct
  0.6535717445529357  0.0945176078838369  0.4152411205043048   T   T   T
  0.5002013702276386  0.1234313147712569  0.3128333223397738   T   T   T
  0.5002794695294985  0.3771097693532536  0.3126515534586972   T   T   T
  0.5000001310433297  0.1253564178816644  0.2086348144247711   T   T   T
  0.5000001342961156  0.3746434636837175  0.2086347507080587   T   T   T
  0.5000000000000000  0.1250000000000000  0.1034790374483450   F   F   F
  0.5000000000000000  0.3750000000000000  0.1034790374483450   F   F   F
  0.2500908939235632  0.8765503045310706  0.3127973311784332   T   T   T
  0.2500000941816193  0.6253566118971372  0.2086348636703901   T   T   T
  0.2500000540154024  0.8746433924634129  0.2086348668591089   T   T   T
  0.2500000000000000  0.6250000000000000  0.1034790374483450   F   F   F
  0.2501680917866405  0.6234698877083951  0.3128301769990756   T   T   T
  0.5000000000000000  0.8750000000000001  0.1034790374483450   F   F   F
  0.5000000000000000  0.6250000000000000  0.1034790374483450   F   F   F
  0.4999998141907326  0.8746432123910085  0.2086349067849812   T   T   T
  0.4999999845274433  0.6253566050681870  0.2086348949301247   T   T   T
  0.7499004946212692  0.6238704853825207  0.3127512562145899   T   T   T
  0.7499102132630056  0.8767434178574831  0.3128928471160011   T   T   T
  0.7500001763429768  0.6253564403181003  0.2086347184870002   T   T   T
  0.7500001683851466  0.8746432931424059  0.2086348553162809   T   T   T
  0.7500000000000000  0.6250000000000000  0.1034790374483450   F   F   F
  0.2500000000000000  0.8750000000000001  0.1034790374483450   F   F   F
  0.7500000000000000  0.8750000000000001  0.1034790374483450   F   F   F
  0.7499999407901679  0.1253564590539261  0.2086346494759109   F   F   F
  0.7501476707799226  0.1252604818175221  0.3134674482953298   T   T   T
  0.6093976520868208  0.0439974722526286  0.4468921229400333   T   T   T
  0.7500000113728454  0.3746434304486337  0.2086345460683278   F   F   F
  0.0003123727989777  0.6234983515493088  0.3129158764428593   T   T   T
  0.7500000000000000  0.3750000000000000  0.1034790374483450   F   F   F
  0.4991512167898513  0.6239801925422656  0.3128689903760176   T   T   T
  0.4999891356136481  0.8765453852879412  0.3127297802978701   T   T   T
  0.7486764073564391  0.3773283803485804  0.3124691475443037   T   T   T
  0.2499017226860358  0.1235265165630658  0.3129041449230491   T   T   T
  0.2499524560109367  0.3761454196109453  0.3128354303246969   T   T   T
  0.0000003093195438  0.8746432006014753  0.2086347012706246   T   T   T
  0.0000001717890977  0.6253564676804197  0.2086346535078811   F   F   F
  0.9997555416453104  0.8766884606820792  0.3127340598497320   T   T   T
  0.9995570907895140  0.1237242479208033  0.3128473605178076   T   T   T
  0.0000000000000000  0.6250000000000000  0.1034790374483450   F   F   F
  0.0000000680918900  0.1253566840092099  0.2086346773957300   T   T   T
  0.0000000906673265  0.3746433398517112  0.2086346491200444   F   F   F
  0.2500000000000000  0.3750000000000000  0.1034790374483450   F   F   F
 -0.0000000000000000  0.8750000000000001  0.1034790374483450   F   F   F
  0.2500001565921251  0.3746432215490525  0.2086349227437580   T   T   T
  0.2500000000000000  0.1250000000000000  0.1034790374483450   F   F   F
  0.2500002121287271  0.1253566769138708  0.2086349069410681   T   T   T
  0.0000000000000000  0.3750000000000000  0.1034790374483450   F   F   F
  0.7500000000000000  0.1250000000000000  0.1034790374483450   F   F   F
  1.0004634208907588  0.3766656742187280  0.3126682708156594   T   T   T
  0.0000000000000000  0.1250000000000000  0.1034790374483450   F   F   F
  0.7490655284153938  0.2497527183908315  0.2608416044414344   T   T   T
  0.7500164746848426  0.7501429375455370  0.2613913721631523   T   T   T
  0.1250000490227787  0.9999999537391714  0.2083512510515163   F   F   F
  0.7500001417602953  0.7499994873041090  0.1560720019688409   F   F   F
  0.8750000000000000  0.0000000000000000  0.1034790374483450   F   F   F
  0.7499999492943173  0.2499998973890912  0.1560719005187454   F   F   F
  0.8752730678759711  0.5008141963798256  0.3110369149213094   T   T   T
  0.1250000000000000  0.5000000000000000  0.1034790374483450   F   F   F
  0.1250000000000000  0.0000000000000000  0.1034790374483450   F   F   F
  0.8743627613462288  0.0004104950881144  0.3115291887690561   T   T   T
  0.8750002628252658  0.9999999076726724  0.2083511414037477   F   F   F
  0.0000000305378639  0.2499999899091724  0.1560719922121782   F   F   F
  0.6250000282706359  0.5000001736904404  0.2083512799526737   F   F   F
  0.7643172531309650  0.2608635302779287  0.3649031949390099   T   T   T
  0.4999207934939024  0.7499298304043225  0.3685104084334206   T   T   T
  0.9996166041859195  0.2500180948460101  0.2615108110578829   T   T   T
  0.8750003526753075  0.4999998740212845  0.2083512073452132   F   F   F
  0.7500000000000000  0.7500000000000000  0.0512814666029016   F   F   F
  0.8750000000000000  0.5000000000000000  0.1034790374483450   F   F   F
  1.0020711266760338  0.2501959143474475  0.3685153075012809   T   T   T
  0.3749749050955515  1.0000790250885512  0.3114412610319342   T   T   T
  0.7500410921905681  0.7500848807325988  0.3685666795097861   T   T   T
  0.6242945432756518  0.5013173463453930  0.3111160588210153   T   T   T
  0.3750000000000000  0.0000000000000000  0.1034790374483450   F   F   F
  0.0000000000000000  0.2500000000000000  0.0512814666029016   F   F   F
  0.1248833918769552  0.9999600297522183  0.3113870031875783   T   T   T
  0.0000000000000000  0.7500000000000000  0.0512814666029016   F   F   F
  0.0000590141754849  0.7500342980154842  0.2613565606491531   T   T   T
  0.7500000000000000  0.2500000000000000  0.0512814666029016   F   F   F
  0.2500001174677877  0.2500001432992012  0.1560720953180006   F   F   F
  0.5000000000000000  0.2500000000000000  0.0512814666029016   F   F   F
  0.2500000128051262  0.7499998164578953  0.1560720125206892   F   F   F
  0.2488697387914356  0.2500711552801784  0.3683861569215195   T   T   T
  0.2500000000000000  0.2500000000000000  0.0512814666029016   F   F   F
  0.3750000000000000  0.5000000000000000  0.1034790374483450   F   F   F
  0.3749999766530777  0.0000000103848568  0.2083513401927624   F   F   F
  0.3749999192595975  0.4999999237622314  0.2083514410374566   F   F   F
  0.6250000000000000  0.0000000000000000  0.1034790374483450   F   F   F
  0.2500000000000000  0.7500000000000000  0.0512814666029016   F   F   F
  0.4998128262418212  0.7500557955319559  0.2613567403723333   T   T   T
  0.6250001596235294  0.9999998419141339  0.2083511880761280   F   F   F
  0.4999999644933695  0.7499995734433390  0.1560719522146622   F   F   F
  0.1250001864597102  0.4999997469804928  0.2083513416983053   F   F   F
  0.6250000000000000  0.5000000000000000  0.1034790374483450   F   F   F
  0.5000000000000000  0.7500000000000000  0.0512814666029016   F   F   F
  0.4960713178362312  0.2507991329640463  0.3681656436554578   T   T   T
  0.1252468943782025  0.4999426643515058  0.3114524348985758   T   T   T
  0.6249387151854141  0.0000407571373224  0.3119196483247897   T   T   T
  0.5001425046069314  0.2499213007876089  0.2612413993800023   T   T   T
  0.9999567273197564  0.7499751311393429  0.3684800344302075   T   T   T
  0.5000000770400611  0.2499999680531972  0.1560718497316933   F   F   F
  0.2500229641729921  0.7500014988217930  0.2613415789925528   T   T   T
  0.0000002340500750  0.7499998236723172  0.1560719263822670   F   F   F
  0.3747249229576283  0.4998370844479366  0.3114648020261111   T   T   T
  0.2500348243396460  0.7498700041068962  0.3683918317396869   T   T   T
  0.2500900961602771  0.2498434706569183  0.2613147503095801   T   T   T
Cartesian
  0.0000000000000000  0.0000000000000000  0.0000000000000000
  0.0000000000000000  0.0000000000000000  0.0000000000000000
  0.0000000000000000  0.0000000000000000  0.0000000000000000
  0.0000000000000000  0.0000000000000000  0.0000000000000000
  0.0000000000000000  0.0000000000000000  0.0000000000000000
  0.0000000000000000  0.0000000000000000  0.0000000000000000
  0.0000000000000000  0.0000000000000000  0.0000000000000000
  0.0000000000000000  0.0000000000000000  0.0000000000000000
  0.0000000000000000  0.0000000000000000  0.0000000000000000
  0.0000000000000000  0.0000000000000000  0.0000000000000000
  0.0000000000000000  0.0000000000000000  0.0000000000000000
  0.0000000000000000  0.0000000000000000  0.0000000000000000
  0.0000000000000000  0.0000000000000000  0.0000000000000000
  0.0000000000000000  0.0000000000000000  0.0000000000000000
  0.0000000000000000  0.0000000000000000  0.0000000000000000
  0.0000000000000000  0.0000000000000000  0.0000000000000000
  0.0000000000000000  0.0000000000000000  0.0000000000000000
  0.0000000000000000  0.0000000000000000  0.0000000000000000
  0.0000000000000000  0.0000000000000000  0.0000000000000000
  0.0000000000000000  0.0000000000000000  0.0000000000000000
  0.0000000000000000  0.0000000000000000  0.0000000000000000
  0.0000000000000000  0.0000000000000000  0.0000000000000000
  0.0000000000000000  0.0000000000000000  0.0000000000000000
  0.0000000000000000  0.0000000000000000  0.0000000000000000
  0.0000000000000000  0.0000000000000000  0.0000000000000000
  0.0000000000000000  0.0000000000000000  0.0000000000000000
  0.0000000000000000  0.0000000000000000  0.0000000000000000
  0.0000000000000000  0.0000000000000000  0.0000000000000000
  0.0000000000000000  0.0000000000000000  0.0000000000000000
  0.0000000000000000  0.0000000000000000  0.0000000000000000
  0.0000000000000000  0.0000000000000000  0.0000000000000000
  0.0000000000000000  0.0000000000000000  0.0000000000000000
  0.0000000000000000  0.0000000000000000  0.0000000000000000
  0.0000000000000000  0.0000000000000000  0.0000000000000000
  0.0000000000000000  0.0000000000000000  0.0000000000000000
  0.0000000000000000  0.0000000000000000  0.0000000000000000
  0.0000000000000000  0.0000000000000000  0.0000000000000000
  0.0000000000000000  0.0000000000000000  0.0000000000000000
  0.0000000000000000  0.0000000000000000  0.0000000000000000
  0.0000000000000000  0.0000000000000000  0.0000000000000000
  0.0000000000000000  0.0000000000000000  0.0000000000000000
  0.0000000000000000  0.0000000000000000  0.0000000000000000
  0.0000000000000000  0.0000000000000000  0.0000000000000000
  0.0000000000000000  0.0000000000000000  0.0000000000000000
  0.0000000000000000  0.0000000000000000  0.0000000000000000
  0.0000000000000000  0.0000000000000000  0.0000000000000000
  0.0000000000000000  0.0000000000000000  0.0000000000000000
  0.0000000000000000  0.0000000000000000  0.0000000000000000
  0.0000000000000000  0.0000000000000000  0.0000000000000000
  0.0000000000000000  0.0000000000000000  0.0000000000000000
  0.0000000000000000  0.0000000000000000  0.0000000000000000
  0.0000000000000000  0.0000000000000000  0.0000000000000000
  0.0000000000000000  0.0000000000000000  0.0000000000000000
  0.0000000000000000  0.0000000000000000  0.0000000000000000
  0.0000000000000000  0.0000000000000000  0.0000000000000000
  0.0000000000000000  0.0000000000000000  0.0000000000000000
  0.0000000000000000  0.0000000000000000  0.0000000000000000
  0.0000000000000000  0.0000000000000000  0.0000000000000000
  0.0000000000000000  0.0000000000000000  0.0000000000000000
  0.0000000000000000  0.0000000000000000  0.0000000000000000
  0.0000000000000000  0.0000000000000000  0.0000000000000000
  0.0000000000000000  0.0000000000000000  0.0000000000000000
  0.0000000000000000  0.0000000000000000  0.0000000000000000
  0.0000000000000000  0.0000000000000000  0.0000000000000000
  0.0000000000000000  0.0000000000000000  0.0000000000000000
  0.0000000000000000  0.0000000000000000  0.0000000000000000
  0.0000000000000000  0.0000000000000000  0.0000000000000000
  0.0000000000000000  0.0000000000000000  0.0000000000000000
  0.0000000000000000  0.0000000000000000  0.0000000000000000
  0.0000000000000000  0.0000000000000000  0.0000000000000000
  0.0000000000000000  0.0000000000000000  0.0000000000000000
  0.0000000000000000  0.0000000000000000  0.0000000000000000
  0.0000000000000000  0.0000000000000000  0.0000000000000000
  0.0000000000000000  0.0000000000000000  0.0000000000000000
  0.0000000000000000  0.0000000000000000  0.0000000000000000
  0.0000000000000000  0.0000000000000000  0.0000000000000000
  0.0000000000000000  0.0000000000000000  0.0000000000000000
  0.0000000000000000  0.0000000000000000  0.0000000000000000
  0.0000000000000000  0.0000000000000000  0.0000000000000000
  0.0000000000000000  0.0000000000000000  0.0000000000000000
  0.0000000000000000  0.0000000000000000  0.0000000000000000
  0.0000000000000000  0.0000000000000000  0.0000000000000000
  0.0000000000000000  0.0000000000000000  0.0000000000000000
  0.0000000000000000  0.0000000000000000  0.0000000000000000
  0.0000000000000000  0.0000000000000000  0.0000000000000000
  0.0000000000000000  0.0000000000000000  0.0000000000000000
  0.0000000000000000  0.0000000000000000  0.0000000000000000
  0.0000000000000000  0.0000000000000000  0.0000000000000000
  0.0000000000000000  0.0000000000000000  0.0000000000000000
  0.0000000000000000  0.0000000000000000  0.0000000000000000
  0.0000000000000000  0.0000000000000000  0.0000000000000000
  0.0000000000000000  0.0000000000000000  0.0000000000000000
  0.0000000000000000  0.0000000000000000  0.0000000000000000
  0.0000000000000000  0.0000000000000000  0.0000000000000000
  0.0000000000000000  0.0000000000000000  0.0000000000000000
  0.0000000000000000  0.0000000000000000  0.0000000000000000
  0.0000000000000000  0.0000000000000000  0.0000000000000000
  0.0000000000000000  0.0000000000000000  0.0000000000000000
  0.0000000000000000  0.0000000000000000  0.0000000000000000
  0.0000000000000000  0.0000000000000000  0.0000000000000000
  0.0000000000000000  0.0000000000000000  0.0000000000000000
  0.0000000000000000  0.0000000000000000  0.0000000000000000
  0.0000000000000000  0.0000000000000000  0.0000000000000000
  0.0000000000000000  0.0000000000000000  0.0000000000000000
  0.0000000000000000  0.0000000000000000  0.0000000000000000
  0.0000000000000000  0.0000000000000000  0.0000000000000000
