C  H  O  Pd
 1.0000000000000000
    11.0046904376558210    0.0000000000000000    0.0000000000000000
     0.0000000000000000   11.0046904376558210    0.0000000000000000
     0.0000000000000000    0.0000000000000000   27.7814912333251840
 C   H   O   Pd 
   1   3   1  80
Selective dynamics
Direct
  0.3889952635521070  0.9039163819951025  0.4309381764548006   T   T   T
  0.4592598532424269  0.9288753837374288  0.4576252701344567   T   T   T
  0.4153190028078226  0.8154865625055610  0.4138637955176168   T   T   T
  0.3006356339705351  0.8920193674450717  0.4493404882906910   T   T   T
  0.3808299428796225  1.0000875262976037  0.3965472181627130   T   T   T
  0.0000000000000000  0.7500000000000000  0.0539927820073487   F   F   F
  0.8750000000000000  0.1250000000000000  0.1240168419828507   F   F   F
  0.6250000000000001  0.1250000000000000  0.1240168419828507   F   F   F
  0.0000000000000000  0.5000000000000000  0.0539927820073487   F   F   F
  0.2500000000000000  0.0000000000000000  0.0539927820073487   F   F   F
  0.5000000000000000  0.0000000000000000  0.0539927820073487   F   F   F
  0.7500000000000000  0.0000000000000000  0.0539927820073487   F   F   F
  0.2500000000000000  0.7500000000000000  0.0539927820073487   F   F   F
  0.0000000000000000  0.2500000000000000  0.0539927820073487   F   F   F
  0.5000000000000000  0.2500000000000000  0.0539927820073487   F   F   F
  0.7500000000000000  0.2500000000000000  0.0539927820073487   F   F   F
  0.2500000000000000  0.5000000000000000  0.0539927820073487   F   F   F
  0.3750000000000000  0.1250000000000000  0.1240168419828507   F   F   F
  0.5000000000000000  0.5000000000000000  0.0539927820073487   F   F   F
  0.7500000000000000  0.5000000000000000  0.0539927820073487   F   F   F
  0.1250000000000000  0.3750000000000000  0.1240168419828507   F   F   F
  0.2500000000000000  0.2500000000000000  0.0539927820073487   F   F   F
  0.2512708654945534  0.2489683678400125  0.1956785341640698   T   T   T
  0.5000000000000000  0.7500000000000000  0.0539927820073487   F   F   F
  0.7543631039377608  0.7491753375228095  0.3387356080871801   T   T   T
  0.5045427210225465  0.7464125052944051  0.3385585469260610   T   T   T
  0.3750000000000000  0.3750000000000000  0.1240168419828507   F   F   F
  0.6250000000000001  0.3750000000000000  0.1240168419828507   F   F   F
  0.8750000000000000  0.3750000000000000  0.1240168419828507   F   F   F
  0.1250000000000000  0.6250000000000001  0.1240168419828507   F   F   F
  0.3750000000000000  0.6250000000000001  0.1240168419828507   F   F   F
  0.0019449436596766  0.2498500824032445  0.1958434950276297   T   T   T
  0.6250000000000001  0.6250000000000001  0.1240168419828507   F   F   F
  0.1250000000000000  0.8750000000000000  0.1240168419828507   F   F   F
  0.3750000000000000  0.8750000000000000  0.1240168419828507   F   F   F
  0.6250000000000001  0.8750000000000000  0.1240168419828507   F   F   F
  0.8750000000000000  0.8750000000000000  0.1240168419828507   F   F   F
  0.0026015345412644  0.0003182889910949  0.1958125361767397   T   T   T
  0.2522479715381618 -0.0004360752205721  0.1957358649845233   T   T   T
  0.5019679310846134 -0.0004594285376093  0.1955102201101261   F   F   F
  0.8750000000000000  0.6250000000000001  0.1240168419828507   F   F   F
  0.7517101949732271  0.0002308696787233  0.1956494296175270   T   T   T
  0.0000000000000000  0.0000000000000000  0.0539927820073487   F   F   F
  0.5020900811162691  0.2487729416519171  0.1955025339787456   F   F   F
  0.3783840255302962  0.1238004379888089  0.2673577863276114   T   T   T
  0.5016014358103503  0.4992124738001646  0.1954262985749243   F   F   F
  0.7515176400124227  0.4996842607252771  0.1955972871027407   F   F   F
  0.0019348374669306  0.7501978836091534  0.1955984686561058   T   T   T
  0.2514537911172968  0.7499290172844815  0.1954970725424660   F   F   F
  0.5019541908954530  0.7498052261108442  0.1955759061798842   F   F   F
  0.7516496474088432  0.7501951675767174  0.1955699635874961   F   F   F
  0.1293758738088885  0.1232227057346948  0.2681804240086600   T   T   T
  0.6277620618632165  0.1233859787899414  0.2677905456881585   T   T   T
  0.6278939847300545  0.6243680238663175  0.2668058118627064   T   T   T
  0.8788271490705442  0.1251281106382117  0.2673147375630079   T   T   T
  0.1276959333174793  0.3741287423738451  0.2672244037686096   T   T   T
  0.3777785872655562  0.3737852319918969  0.2668452397174422   T   T   T
  0.6278277725663687  0.3738948292837598  0.2669035444346926   T   T   T
  0.8780469688101162  0.3750727049179587  0.2673324275275890   T   T   T
  0.1273888113565481  0.6251103895463336  0.2668648033558355   T   T   T
  0.3777252972406828  0.6231179287395650  0.2666319282337620   T   T   T
  0.2508083871019302  0.4992645511064264  0.1954895748302314   F   F   F
  0.8779111131326167  0.6252957288598998  0.2670059517843403   T   T   T
  0.3785413821860370  0.8741290697865716  0.2672455984987084   T   T   T
  0.2534114505003047  0.7463587655177369  0.3381042813982447   T   T   T
  0.7519428361151083  0.2497620403407105  0.1956837667628993   T   T   T
  0.0012689449807844  0.4997578793790128  0.1956358077781059   T   T   T
  0.2537857612044936  0.2508179739792109  0.3387753764443805   T   T   T
  0.6278596848289040  0.8753432303859869  0.2676106310156049   T   T   T
  0.8786605873653307  0.8752408719772019  0.2671361868149574   T   T   T
  0.0022047475287592  0.0004135428734167  0.3395465263516617   T   T   T
  0.2487185591213324 -0.0025317175204381  0.3415106635485475   T   T   T
  0.5091173306340886 -0.0005769946866717  0.3404308494720045   T   T   T
  0.1250000000000000  0.1250000000000000  0.1240168419828507   F   F   F
  0.7559151790059279 -0.0003224072324934  0.3389440992913081   T   T   T
  0.5048659532255155  0.2508946878807801  0.3384926227503434   T   T   T
  0.1288294144106795  0.8757245174042144  0.2679282660027054   T   T   T
  0.7548572520208017  0.2503238818853648  0.3390072518469866   T   T   T
  0.0029707879903245  0.5008399376610788  0.3391773815472025   T   T   T
  0.2527737592700036  0.4989343083517831  0.3388925022071839   T   T   T
  0.5032002660027763  0.4985097841540463  0.3387896121778853   T   T   T
  0.7531382608849401  0.4997261075954406  0.3388682591380022   T   T   T
  0.0036207654676392  0.7499477469626264  0.3391358583036755   T   T   T
  0.0042904704352012  0.2507041904577105  0.3393188355535710   T   T   T
  0.7500000000000000  0.7500000000000000  0.0539927820073487   F   F   F
Cartesian
  0.0000000000000000  0.0000000000000000  0.0000000000000000
  0.0000000000000000  0.0000000000000000  0.0000000000000000
  0.0000000000000000  0.0000000000000000  0.0000000000000000
  0.0000000000000000  0.0000000000000000  0.0000000000000000
  0.0000000000000000  0.0000000000000000  0.0000000000000000
  0.0000000000000000  0.0000000000000000  0.0000000000000000
  0.0000000000000000  0.0000000000000000  0.0000000000000000
  0.0000000000000000  0.0000000000000000  0.0000000000000000
  0.0000000000000000  0.0000000000000000  0.0000000000000000
  0.0000000000000000  0.0000000000000000  0.0000000000000000
  0.0000000000000000  0.0000000000000000  0.0000000000000000
  0.0000000000000000  0.0000000000000000  0.0000000000000000
  0.0000000000000000  0.0000000000000000  0.0000000000000000
  0.0000000000000000  0.0000000000000000  0.0000000000000000
  0.0000000000000000  0.0000000000000000  0.0000000000000000
  0.0000000000000000  0.0000000000000000  0.0000000000000000
  0.0000000000000000  0.0000000000000000  0.0000000000000000
  0.0000000000000000  0.0000000000000000  0.0000000000000000
  0.0000000000000000  0.0000000000000000  0.0000000000000000
  0.0000000000000000  0.0000000000000000  0.0000000000000000
  0.0000000000000000  0.0000000000000000  0.0000000000000000
  0.0000000000000000  0.0000000000000000  0.0000000000000000
  0.0000000000000000  0.0000000000000000  0.0000000000000000
  0.0000000000000000  0.0000000000000000  0.0000000000000000
  0.0000000000000000  0.0000000000000000  0.0000000000000000
  0.0000000000000000  0.0000000000000000  0.0000000000000000
  0.0000000000000000  0.0000000000000000  0.0000000000000000
  0.0000000000000000  0.0000000000000000  0.0000000000000000
  0.0000000000000000  0.0000000000000000  0.0000000000000000
  0.0000000000000000  0.0000000000000000  0.0000000000000000
  0.0000000000000000  0.0000000000000000  0.0000000000000000
  0.0000000000000000  0.0000000000000000  0.0000000000000000
  0.0000000000000000  0.0000000000000000  0.0000000000000000
  0.0000000000000000  0.0000000000000000  0.0000000000000000
  0.0000000000000000  0.0000000000000000  0.0000000000000000
  0.0000000000000000  0.0000000000000000  0.0000000000000000
  0.0000000000000000  0.0000000000000000  0.0000000000000000
  0.0000000000000000  0.0000000000000000  0.0000000000000000
  0.0000000000000000  0.0000000000000000  0.0000000000000000
  0.0000000000000000  0.0000000000000000  0.0000000000000000
  0.0000000000000000  0.0000000000000000  0.0000000000000000
  0.0000000000000000  0.0000000000000000  0.0000000000000000
  0.0000000000000000  0.0000000000000000  0.0000000000000000
  0.0000000000000000  0.0000000000000000  0.0000000000000000
  0.0000000000000000  0.0000000000000000  0.0000000000000000
  0.0000000000000000  0.0000000000000000  0.0000000000000000
  0.0000000000000000  0.0000000000000000  0.0000000000000000
  0.0000000000000000  0.0000000000000000  0.0000000000000000
  0.0000000000000000  0.0000000000000000  0.0000000000000000
  0.0000000000000000  0.0000000000000000  0.0000000000000000
  0.0000000000000000  0.0000000000000000  0.0000000000000000
  0.0000000000000000  0.0000000000000000  0.0000000000000000
  0.0000000000000000  0.0000000000000000  0.0000000000000000
  0.0000000000000000  0.0000000000000000  0.0000000000000000
  0.0000000000000000  0.0000000000000000  0.0000000000000000
  0.0000000000000000  0.0000000000000000  0.0000000000000000
  0.0000000000000000  0.0000000000000000  0.0000000000000000
  0.0000000000000000  0.0000000000000000  0.0000000000000000
  0.0000000000000000  0.0000000000000000  0.0000000000000000
  0.0000000000000000  0.0000000000000000  0.0000000000000000
  0.0000000000000000  0.0000000000000000  0.0000000000000000
  0.0000000000000000  0.0000000000000000  0.0000000000000000
  0.0000000000000000  0.0000000000000000  0.0000000000000000
  0.0000000000000000  0.0000000000000000  0.0000000000000000
  0.0000000000000000  0.0000000000000000  0.0000000000000000
  0.0000000000000000  0.0000000000000000  0.0000000000000000
  0.0000000000000000  0.0000000000000000  0.0000000000000000
  0.0000000000000000  0.0000000000000000  0.0000000000000000
  0.0000000000000000  0.0000000000000000  0.0000000000000000
  0.0000000000000000  0.0000000000000000  0.0000000000000000
  0.0000000000000000  0.0000000000000000  0.0000000000000000
  0.0000000000000000  0.0000000000000000  0.0000000000000000
  0.0000000000000000  0.0000000000000000  0.0000000000000000
  0.0000000000000000  0.0000000000000000  0.0000000000000000
  0.0000000000000000  0.0000000000000000  0.0000000000000000
  0.0000000000000000  0.0000000000000000  0.0000000000000000
  0.0000000000000000  0.0000000000000000  0.0000000000000000
  0.0000000000000000  0.0000000000000000  0.0000000000000000
  0.0000000000000000  0.0000000000000000  0.0000000000000000
  0.0000000000000000  0.0000000000000000  0.0000000000000000
  0.0000000000000000  0.0000000000000000  0.0000000000000000
  0.0000000000000000  0.0000000000000000  0.0000000000000000
  0.0000000000000000  0.0000000000000000  0.0000000000000000
  0.0000000000000000  0.0000000000000000  0.0000000000000000
  0.0000000000000000  0.0000000000000000  0.0000000000000000
