C  H  O  Pd
 1.0000000000000000
    12.3034736924171124    0.0000000000000000    0.0000000000000000
     0.0000000000000000   12.3034736924171142    0.0000000000000000
     0.0000000000000000    0.0000000000000000   29.1654207465942434
 C   H   O   Pd 
   1   3  17  96
Selective dynamics
Direct
  0.8187692678523983  0.7964832312263529  0.4269879698105112   T   T   T
  0.7987612651098364  0.7096125890702784  0.4311369022678708   T   T   T
  0.9005398664302215  0.8121205028470239  0.4412097779081011   T   T   T
  0.7592882488115302  0.8466021276420822  0.4460221980233318   T   T   T
  0.8172451652358003  0.8303631189322910  0.3800954607928964   T   T   T
  0.6877372234498648  0.1433915052498929  0.3613600781989977   T   T   T
  0.1851887376090700  0.6426253380625704  0.3620014859214504   T   T   T
  0.4385123097523282  0.1413295108192807  0.3631111635431959   T   T   T
  0.4336626946454151  0.4456569395427193  0.3211648930804165   T   T   T
  0.1896495641072433  0.9489956475303470  0.3212073774928051   T   T   T
  0.6864133738536465  0.9509130845413857  0.3201425972701019   T   T   T
  0.1882175255666485  0.4489357961385829  0.3206566117878393   T   T   T
  0.9415083579906440  0.6399094044237932  0.3634934555329698   T   T   T
  0.6890375308299819  0.4501143674179235  0.3210862540415342   T   T   T
  0.4381106839726437  0.6397465162436545  0.3631011689340648   T   T   T
  0.4360007595467593  0.9452588395401270  0.3218208613698714   T   T   T
  0.9332858910330446  0.4462203739896620  0.3213124984306238   T   T   T
  0.9392242632593855  0.1408419577053345  0.3618323517086211   T   T   T
  0.9381952631732672  0.9469181167383546  0.3193442306655328   T   T   T
  0.1879649841696445  0.1435947600004472  0.3616224028236267   T   T   T
  0.6824902268409213  0.6419773817837319  0.3625357678984191   T   T   T
  0.8500000000000014  0.0499999999999972  0.0514307684100572   F   F   F
  0.8999548893025472  0.9040665927968935  0.2533549457799956   T   T   T
  0.2499707131254955  0.8492987964248615  0.1855932700389138   T   T   T
  0.0634984949212634  0.0490937532918385  0.3395806042959896   T   T   T
  0.1507236091547503  0.1489864169829936  0.1853656493630883   F   F   F
  0.9500000000000028  0.2500000000000000  0.0514307684100572   F   F   F
  0.1499999999999986  0.1499999999999986  0.0514307684100572   F   F   F
  0.2999999999999972  0.2000000000000028  0.1181313319610595   F   F   F
  0.0000000000000000  0.1000000000000014  0.1181313319610595   F   F   F
  0.9486127127564162  0.2506768571014975  0.1843632683220324   F   F   F
  0.9971639431956306  0.1068581694372112  0.2527881366761848   T   T   T
  0.1000000000000014  0.2999999999999972  0.1181313319610595   F   F   F
  0.5606932641003803  0.5471573807815983  0.3400341843768874   T   T   T
  0.1912594515523548  0.2884979751564576  0.3346713899396943   T   T   T
  0.0958339681793197  0.2979846592304678  0.2524349088695471   T   T   T
  0.0499999999999972  0.4500000000000027  0.0514307684100572   F   F   F
  0.2000000000000028  0.5000000000000000  0.1181313319610595   F   F   F
  0.0491193131827514  0.4512444611448465  0.1844626448581111   F   F   F
  0.8485330413376032  0.0512636254534289  0.1852339871257567   F   F   F
  0.3120215742232040  0.5511200227083261  0.3399597777714278   T   T   T
  0.4500000000000028  0.2500000000000000  0.0514307684100572   F   F   F
  0.3485341556527256  0.0512641898857512  0.1852337169709379   F   F   F
  0.9455650989622771  0.7848656879330447  0.3353673677356785   T   T   T
  0.4015233759909789  0.9039764412001303  0.2540326688681843   T   T   T
  0.1876093854483097  0.7883453604012088  0.3356070822624164   T   T   T
  0.3140524522553272  0.0503201738508352  0.3404298870587685   T   T   T
  0.8126093186454654  0.5530232130272272  0.3404888889872620   T   T   T
  0.6907990550188776  0.2889739464841523  0.3348710717595079   T   T   T
  0.9365977012787162  0.2823435844529981  0.3320291406550192   T   T   T
  0.4404990760734435  0.7815125476610417  0.3330463399363588   T   T   T
  0.0614908166241483  0.5472311639926609  0.3400294363982340   T   T   T
  0.6835729131470641  0.7903757054074885  0.3372610492926608   T   T   T
  0.5619188765073592  0.0492413352811191  0.3403420637201313   T   T   T
  0.8139939075907765  0.0505263969678779  0.3392113506911945   T   T   T
  0.8999999999999986  0.8999999999999986  0.1181313319610595   F   F   F
  0.9002775709704390  0.4049009984348847  0.2536906004015902   T   T   T
  0.2499682108142002  0.3493012120833129  0.1855937382329413   T   T   T
  0.2500000000000000  0.3500000000000014  0.0514307684100572   F   F   F
  0.2500000000000000  0.8500000000000014  0.0514307684100572   F   F   F
  0.4372038363959330  0.2823363396596856  0.3325836209021230   T   T   T
  0.1507252829162628  0.6489864416498848  0.1853659281879895   F   F   F
  0.1955710712489961  0.5010234325413324  0.2536938005424939   T   T   T
  0.4970485079708385  0.1067856220359993  0.2531536664944811   T   T   T
  0.5000000000000000  0.1000000000000014  0.1181313319610595   F   F   F
  0.2986616051804002  0.2018020752503374  0.2571865322616380   T   T   T
  0.2978136086658982  0.7034274597983129  0.2577533454832668   T   T   T
  0.8999999999999986  0.3999999999999986  0.1181313319610595   F   F   F
  0.5963680382941606  0.7975310736172443  0.2534538513191207   T   T   T
  0.7500000000000000  0.8500000000000014  0.0514307684100572   F   F   F
  0.7982692450853582  0.7027336707839914  0.2577947254806666   T   T   T
  0.2999999999999972  0.7000000000000028  0.1181313319610595   F   F   F
  0.6000000000000014  0.2999999999999972  0.1181313319610595   F   F   F
  0.7999999999999972  0.7000000000000028  0.1181313319610595   F   F   F
  0.6954636119216471 -0.0002825865255905  0.2532469045663804   T   T   T
  0.5491182374295687  0.9512475927721618  0.1844623188205349   F   F   F
  0.7000000000000027  0.0000000000000000  0.1181313319610595   F   F   F
  0.5499999999999972  0.9500000000000028  0.0514307684100572   F   F   F
  0.6507236918031661  0.6489854869807887  0.1853661340816861   F   F   F
  0.4486144413896602  0.7506743341769924  0.1843622545089304   F   F   F
  0.6499999999999986  0.6499999999999986  0.0514307684100572   F   F   F
  0.6000000000000014  0.7999999999999972  0.1181313319610595   F   F   F
  0.5499999999999972  0.4500000000000027  0.0514307684100572   F   F   F
  0.4486122021981009  0.2506766379109669  0.1843629363752118   F   F   F
  0.5957540321675844  0.2977945822333271  0.2524470260746604   T   T   T
  0.5000000000000000  0.6000000000000014  0.1181313319610595   F   F   F
  0.3485320028910852  0.5512631916718084  0.1852336449463447   F   F   F
  0.4965226149233207  0.6072852872222573  0.2529639665587676   T   T   T
  0.4500000000000028  0.7500000000000000  0.0514307684100572   F   F   F
  0.1499999999999986  0.6499999999999986  0.0514307684100572   F   F   F
  0.9500000000000028  0.7500000000000000  0.0514307684100572   F   F   F
  0.0491177240126065  0.9512405474851490  0.1844615703293516   F   F   F
  0.7000000000000027  0.5000000000000000  0.1181313319610595   F   F   F
  0.3500000000000014  0.0499999999999972  0.0514307684100572   F   F   F
  0.7499668075026139  0.8492990416203603  0.1855918419518905   T   T   T
  0.1966256075019602 -0.0010079086328490  0.2538778328856426   T   T   T
  0.2000000000000028  0.0000000000000000  0.1181313319610595   F   F   F
  0.0499999999999972  0.9500000000000028  0.0514307684100572   F   F   F
  0.9486106854241280  0.7506756416198153  0.1843625136127240   F   F   F
  0.1000000000000014  0.7999999999999972  0.1181313319610595   F   F   F
  0.3999999999999986  0.8999999999999986  0.1181313319610595   F   F   F
  0.9963697608367968  0.6068366607099890  0.2531844065579778   T   T   T
  0.8485338373677122  0.5512634687110046  0.1852339858465592   F   F   F
  0.3500000000000014  0.5499999999999972  0.0514307684100572   F   F   F
  0.0000000000000000  0.6000000000000014  0.1181313319610595   F   F   F
  0.4003737963375000  0.4044075423470437  0.2536478314954357   T   T   T
  0.7499688545785510  0.3493009249718623  0.1855923550188662   T   T   T
  0.3999999999999986  0.3999999999999986  0.1181313319610595   F   F   F
  0.7500000000000000  0.3500000000000014  0.0514307684100572   F   F   F
  0.7985733706394821  0.2018917917357372  0.2574006630647996   T   T   T
  0.6507246110173561  0.1489888581776777  0.1853660239556655   F   F   F
  0.7999999999999972  0.2000000000000028  0.1181313319610595   F   F   F
  0.6499999999999986  0.1499999999999986  0.0514307684100572   F   F   F
  0.6953402773250135  0.5006357856591526  0.2538224467727220   T   T   T
  0.5491175178526683  0.4512445656232251  0.1844618875770611   F   F   F
  0.8500000000000014  0.5499999999999972  0.0514307684100572   F   F   F
  0.0939990606536550  0.7975996884855940  0.2531672879967489   T   T   T
Cartesian
  0.0000000000000000  0.0000000000000000  0.0000000000000000
  0.0000000000000000  0.0000000000000000  0.0000000000000000
  0.0000000000000000  0.0000000000000000  0.0000000000000000
  0.0000000000000000  0.0000000000000000  0.0000000000000000
  0.0000000000000000  0.0000000000000000  0.0000000000000000
  0.0000000000000000  0.0000000000000000  0.0000000000000000
  0.0000000000000000  0.0000000000000000  0.0000000000000000
  0.0000000000000000  0.0000000000000000  0.0000000000000000
  0.0000000000000000  0.0000000000000000  0.0000000000000000
  0.0000000000000000  0.0000000000000000  0.0000000000000000
  0.0000000000000000  0.0000000000000000  0.0000000000000000
  0.0000000000000000  0.0000000000000000  0.0000000000000000
  0.0000000000000000  0.0000000000000000  0.0000000000000000
  0.0000000000000000  0.0000000000000000  0.0000000000000000
  0.0000000000000000  0.0000000000000000  0.0000000000000000
  0.0000000000000000  0.0000000000000000  0.0000000000000000
  0.0000000000000000  0.0000000000000000  0.0000000000000000
  0.0000000000000000  0.0000000000000000  0.0000000000000000
  0.0000000000000000  0.0000000000000000  0.0000000000000000
  0.0000000000000000  0.0000000000000000  0.0000000000000000
  0.0000000000000000  0.0000000000000000  0.0000000000000000
  0.0000000000000000  0.0000000000000000  0.0000000000000000
  0.0000000000000000  0.0000000000000000  0.0000000000000000
  0.0000000000000000  0.0000000000000000  0.0000000000000000
  0.0000000000000000  0.0000000000000000  0.0000000000000000
  0.0000000000000000  0.0000000000000000  0.0000000000000000
  0.0000000000000000  0.0000000000000000  0.0000000000000000
  0.0000000000000000  0.0000000000000000  0.0000000000000000
  0.0000000000000000  0.0000000000000000  0.0000000000000000
  0.0000000000000000  0.0000000000000000  0.0000000000000000
  0.0000000000000000  0.0000000000000000  0.0000000000000000
  0.0000000000000000  0.0000000000000000  0.0000000000000000
  0.0000000000000000  0.0000000000000000  0.0000000000000000
  0.0000000000000000  0.0000000000000000  0.0000000000000000
  0.0000000000000000  0.0000000000000000  0.0000000000000000
  0.0000000000000000  0.0000000000000000  0.0000000000000000
  0.0000000000000000  0.0000000000000000  0.0000000000000000
  0.0000000000000000  0.0000000000000000  0.0000000000000000
  0.0000000000000000  0.0000000000000000  0.0000000000000000
  0.0000000000000000  0.0000000000000000  0.0000000000000000
  0.0000000000000000  0.0000000000000000  0.0000000000000000
  0.0000000000000000  0.0000000000000000  0.0000000000000000
  0.0000000000000000  0.0000000000000000  0.0000000000000000
  0.0000000000000000  0.0000000000000000  0.0000000000000000
  0.0000000000000000  0.0000000000000000  0.0000000000000000
  0.0000000000000000  0.0000000000000000  0.0000000000000000
  0.0000000000000000  0.0000000000000000  0.0000000000000000
  0.0000000000000000  0.0000000000000000  0.0000000000000000
  0.0000000000000000  0.0000000000000000  0.0000000000000000
  0.0000000000000000  0.0000000000000000  0.0000000000000000
  0.0000000000000000  0.0000000000000000  0.0000000000000000
  0.0000000000000000  0.0000000000000000  0.0000000000000000
  0.0000000000000000  0.0000000000000000  0.0000000000000000
  0.0000000000000000  0.0000000000000000  0.0000000000000000
  0.0000000000000000  0.0000000000000000  0.0000000000000000
  0.0000000000000000  0.0000000000000000  0.0000000000000000
  0.0000000000000000  0.0000000000000000  0.0000000000000000
  0.0000000000000000  0.0000000000000000  0.0000000000000000
  0.0000000000000000  0.0000000000000000  0.0000000000000000
  0.0000000000000000  0.0000000000000000  0.0000000000000000
  0.0000000000000000  0.0000000000000000  0.0000000000000000
  0.0000000000000000  0.0000000000000000  0.0000000000000000
  0.0000000000000000  0.0000000000000000  0.0000000000000000
  0.0000000000000000  0.0000000000000000  0.0000000000000000
  0.0000000000000000  0.0000000000000000  0.0000000000000000
  0.0000000000000000  0.0000000000000000  0.0000000000000000
  0.0000000000000000  0.0000000000000000  0.0000000000000000
  0.0000000000000000  0.0000000000000000  0.0000000000000000
  0.0000000000000000  0.0000000000000000  0.0000000000000000
  0.0000000000000000  0.0000000000000000  0.0000000000000000
  0.0000000000000000  0.0000000000000000  0.0000000000000000
  0.0000000000000000  0.0000000000000000  0.0000000000000000
  0.0000000000000000  0.0000000000000000  0.0000000000000000
  0.0000000000000000  0.0000000000000000  0.0000000000000000
  0.0000000000000000  0.0000000000000000  0.0000000000000000
  0.0000000000000000  0.0000000000000000  0.0000000000000000
  0.0000000000000000  0.0000000000000000  0.0000000000000000
  0.0000000000000000  0.0000000000000000  0.0000000000000000
  0.0000000000000000  0.0000000000000000  0.0000000000000000
  0.0000000000000000  0.0000000000000000  0.0000000000000000
  0.0000000000000000  0.0000000000000000  0.0000000000000000
  0.0000000000000000  0.0000000000000000  0.0000000000000000
  0.0000000000000000  0.0000000000000000  0.0000000000000000
  0.0000000000000000  0.0000000000000000  0.0000000000000000
  0.0000000000000000  0.0000000000000000  0.0000000000000000
  0.0000000000000000  0.0000000000000000  0.0000000000000000
  0.0000000000000000  0.0000000000000000  0.0000000000000000
  0.0000000000000000  0.0000000000000000  0.0000000000000000
  0.0000000000000000  0.0000000000000000  0.0000000000000000
  0.0000000000000000  0.0000000000000000  0.0000000000000000
  0.0000000000000000  0.0000000000000000  0.0000000000000000
  0.0000000000000000  0.0000000000000000  0.0000000000000000
  0.0000000000000000  0.0000000000000000  0.0000000000000000
  0.0000000000000000  0.0000000000000000  0.0000000000000000
  0.0000000000000000  0.0000000000000000  0.0000000000000000
  0.0000000000000000  0.0000000000000000  0.0000000000000000
  0.0000000000000000  0.0000000000000000  0.0000000000000000
  0.0000000000000000  0.0000000000000000  0.0000000000000000
  0.0000000000000000  0.0000000000000000  0.0000000000000000
  0.0000000000000000  0.0000000000000000  0.0000000000000000
  0.0000000000000000  0.0000000000000000  0.0000000000000000
  0.0000000000000000  0.0000000000000000  0.0000000000000000
  0.0000000000000000  0.0000000000000000  0.0000000000000000
  0.0000000000000000  0.0000000000000000  0.0000000000000000
  0.0000000000000000  0.0000000000000000  0.0000000000000000
  0.0000000000000000  0.0000000000000000  0.0000000000000000
  0.0000000000000000  0.0000000000000000  0.0000000000000000
  0.0000000000000000  0.0000000000000000  0.0000000000000000
  0.0000000000000000  0.0000000000000000  0.0000000000000000
  0.0000000000000000  0.0000000000000000  0.0000000000000000
  0.0000000000000000  0.0000000000000000  0.0000000000000000
  0.0000000000000000  0.0000000000000000  0.0000000000000000
  0.0000000000000000  0.0000000000000000  0.0000000000000000
  0.0000000000000000  0.0000000000000000  0.0000000000000000
  0.0000000000000000  0.0000000000000000  0.0000000000000000
  0.0000000000000000  0.0000000000000000  0.0000000000000000
  0.0000000000000000  0.0000000000000000  0.0000000000000000
