Pd
 1.0000000000000000
     3.9173015749846063    0.0000000000000000    0.0000000000000002
     0.0000000000000006    3.9173015749846063    0.0000000000000002
     0.0000000000000000    0.0000000000000000    3.9173015749846063
 Pd 
   4
Cartesian
  0.0000000000000000  0.0000000000000000  0.0000000000000000
  0.0000000000000003  1.9586507874923031  1.9586507874923031
  1.9586507874923031  0.0000000000000000  1.9586507874923031
  1.9586507874923034  1.9586507874923031  0.0000000000000002
