C  O  Pd                                
    1.000000000000000     
    11.0046904376558210    0.0000000000000000    0.0000000000000000
     0.0000000000000000   11.0046904376558210    0.0000000000000000
     0.0000000000000000    0.0000000000000000   27.7814912333251840
   C    O    Pd
     1     1    80
Selective dynamics
Direct
  0.8739255595958101  0.7314751381301454  0.3890321015508149   T   T   T
  0.8737647569693979  0.7177441795904530  0.4311692461278391   T   T   T
  0.4989508051371210  0.7499489455052518  0.3354450111236615   T   T   T
  0.0000000000000000  0.5000000000000000  0.0539927820073487   F   F   F
  0.2500000000000000  0.0000000000000000  0.0539927820073487   F   F   F
  0.5000000000000000  0.0000000000000000  0.0539927820073487   F   F   F
  0.7500000000000000  0.0000000000000000  0.0539927820073487   F   F   F
  0.0000000000000000  0.2500000000000000  0.0539927820073487   F   F   F
  0.2500000000000000  0.2500000000000000  0.0539927820073487   F   F   F
  0.5000000000000000  0.2500000000000000  0.0539927820073487   F   F   F
  0.6250000000000000  0.1250000000000000  0.1240168419828507   F   F   F
  0.7500000000000000  0.2500000000000000  0.0539927820073487   F   F   F
  0.3750000000000000  0.1250000000000000  0.1240168419828507   F   F   F
  0.5000000000000000  0.5000000000000000  0.0539927820073487   F   F   F
  0.7500000000000000  0.5000000000000000  0.0539927820073487   F   F   F
  0.0000000000000000  0.7500000000000000  0.0539927820073487   F   F   F
  0.2500000000000000  0.7500000000000000  0.0539927820073487   F   F   F
  0.5000000000000000  0.7500000000000000  0.0539927820073487   F   F   F
  0.7500000000000000  0.7500000000000000  0.0539927820073487   F   F   F
  0.2500000000000000  0.5000000000000000  0.0539927820073487   F   F   F
  0.7481861706860820  0.7494298252656100  0.3385432478316137   T   T   T
  0.8750000000000000  0.1250000000000000  0.1240168419828507   F   F   F
  0.2495816170358367  0.2498283240660513  0.1954557854422418   F   F   F
  0.3750000000000000  0.3750000000000000  0.1240168419828507   F   F   F
  0.6250000000000000  0.3750000000000000  0.1240168419828507   F   F   F
  0.8750000000000000  0.3750000000000000  0.1240168419828507   F   F   F
  0.1250000000000000  0.6250000000000000  0.1240168419828507   F   F   F
  0.3750000000000000  0.6250000000000000  0.1240168419828507   F   F   F
  0.6250000000000000  0.6250000000000000  0.1240168419828507   F   F   F
  0.8750000000000000  0.6250000000000000  0.1240168419828507   F   F   F
  0.1250000000000000  0.1250000000000000  0.1240168419828507   F   F   F
  0.1250000000000000  0.8750000000000000  0.1240168419828507   F   F   F
  0.6250000000000000  0.8750000000000000  0.1240168419828507   F   F   F
  0.8750000000000000  0.8750000000000000  0.1240168419828507   F   F   F
  0.9998134776217213  0.9994641636690389  0.1954528618234264   F   F   F
  0.2499285372696888  0.0000926650794412  0.1942823561474737   T   T   T
  0.4991154914544893  0.9999904204686203  0.1954037447969981   F   F   F
  0.7491796396159671  0.9995452984412339  0.1953589378559855   F   F   F
  0.0001060115508840  0.2497775293359943  0.1944756170374418   T   T   T
  0.3750000000000000  0.8750000000000000  0.1240168419828507   F   F   F
  0.1250000000000000  0.3750000000000000  0.1240168419828507   F   F   F
  0.0000000000000000  0.0000000000000000  0.0539927820073487   F   F   F
  0.9996761585700682  0.5000266384375749  0.1954197805719744   F   F   F
  0.4991718275965553  0.4998773029964596  0.1953944622164627   F   F   F
  0.7491346454095194  0.4999616629916019  0.1953842943956303   F   F   F
  0.9993013040571501  0.7497189744527103  0.1947551839301166   T   T   T
  0.2491901302362200  0.7499090900569152  0.1947304104846144   T   T   T
  0.5002741491243393  0.7499525892561590  0.1947700885346778   T   T   T
  0.7501065708034746  0.7497929501262706  0.1947843464702582   T   T   T
  0.1246263278390119  0.1240736051720799  0.2649590607015141   T   T   T
  0.3743703435187429  0.1246897599974894  0.2650630298288479   T   T   T
  0.6243343203848049  0.1246611298783676  0.2649127979330547   T   T   T
  0.8744476926231523  0.1249893148485387  0.2646947460751274   T   T   T
  0.1243417243389777  0.3749370710927079  0.2651166809824023   T   T   T
  0.3745877123758443  0.3747240855763446  0.2652129189551708   T   T   T
  0.6243554553219144  0.3747060832168955  0.2649196395582810   T   T   T
  0.8743857637744555  0.3740491113043347  0.2646718373115761   T   T   T
  0.1238572539447085  0.6257167458495494  0.2655832138636894   T   T   T
  0.3743727012517460  0.6252751767278644  0.2651101114214770   T   T   T
  0.6249485590945598  0.6255663857567348  0.2655080450690375   T   T   T
  0.2495190487746441  0.4999395362912864  0.1954349399458124   F   F   F
  0.8744130696564130  0.6247269034206669  0.2655653465592573   T   T   T
  0.3740969701729667  0.8746656617615882  0.2649383536442184   T   T   T
  0.2492098395177756  0.2495615983804479  0.3350503445433685   T   T   T
  0.6252018309619619  0.8737315183767299  0.2656233477004571   T   T   T
  0.8744999084528360  0.8746043457883494  0.2655511954341339   T   T   T
  0.9997576666518653  0.0013821303589090  0.3352177159420657   T   T   T
  0.2496232197182946  0.9997493516542266  0.3353712871869466   T   T   T
  0.4989806770961226  0.9998821911898745  0.3351251854566583   T   T   T
  0.7489612895721789  0.0015349554813246  0.3352475078150376   T   T   T
  0.9991598782451206  0.2493439814952552  0.3350359379066986   T   T   T
  0.4996991768371689  0.2496670365205800  0.3352232924562943   T   T   T
  0.1239094852846715  0.8738126211220248  0.2655070060569695   T   T   T
  0.7494580204855001  0.2494218495652257  0.3350108504524249   T   T   T
  0.9995819746141650  0.4972769028563769  0.3352399937813643   T   T   T
  0.2496224933208815  0.4998301008141344  0.3352892220535649   T   T   T
  0.4991464938053024  0.4997075375518299  0.3352082989927210   T   T   T
  0.7488298068903227  0.4971692366830988  0.3352070052044512   T   T   T
  0.0001892287411919  0.7495366607566615  0.3386949635102676   T   T   T
  0.2495395532094464  0.7500269184953904  0.3354724709798041   T   T   T
  0.7493761973305910  0.2497385046448475  0.1943923844123300   T   T   T
  0.4993750922316997  0.2499148037827736  0.1946193614408384   T   T   T
 
  0.00000000E+00  0.00000000E+00  0.00000000E+00
  0.00000000E+00  0.00000000E+00  0.00000000E+00
  0.00000000E+00  0.00000000E+00  0.00000000E+00
  0.00000000E+00  0.00000000E+00  0.00000000E+00
  0.00000000E+00  0.00000000E+00  0.00000000E+00
  0.00000000E+00  0.00000000E+00  0.00000000E+00
  0.00000000E+00  0.00000000E+00  0.00000000E+00
  0.00000000E+00  0.00000000E+00  0.00000000E+00
  0.00000000E+00  0.00000000E+00  0.00000000E+00
  0.00000000E+00  0.00000000E+00  0.00000000E+00
  0.00000000E+00  0.00000000E+00  0.00000000E+00
  0.00000000E+00  0.00000000E+00  0.00000000E+00
  0.00000000E+00  0.00000000E+00  0.00000000E+00
  0.00000000E+00  0.00000000E+00  0.00000000E+00
  0.00000000E+00  0.00000000E+00  0.00000000E+00
  0.00000000E+00  0.00000000E+00  0.00000000E+00
  0.00000000E+00  0.00000000E+00  0.00000000E+00
  0.00000000E+00  0.00000000E+00  0.00000000E+00
  0.00000000E+00  0.00000000E+00  0.00000000E+00
  0.00000000E+00  0.00000000E+00  0.00000000E+00
  0.00000000E+00  0.00000000E+00  0.00000000E+00
  0.00000000E+00  0.00000000E+00  0.00000000E+00
  0.00000000E+00  0.00000000E+00  0.00000000E+00
  0.00000000E+00  0.00000000E+00  0.00000000E+00
  0.00000000E+00  0.00000000E+00  0.00000000E+00
  0.00000000E+00  0.00000000E+00  0.00000000E+00
  0.00000000E+00  0.00000000E+00  0.00000000E+00
  0.00000000E+00  0.00000000E+00  0.00000000E+00
  0.00000000E+00  0.00000000E+00  0.00000000E+00
  0.00000000E+00  0.00000000E+00  0.00000000E+00
  0.00000000E+00  0.00000000E+00  0.00000000E+00
  0.00000000E+00  0.00000000E+00  0.00000000E+00
  0.00000000E+00  0.00000000E+00  0.00000000E+00
  0.00000000E+00  0.00000000E+00  0.00000000E+00
  0.00000000E+00  0.00000000E+00  0.00000000E+00
  0.00000000E+00  0.00000000E+00  0.00000000E+00
  0.00000000E+00  0.00000000E+00  0.00000000E+00
  0.00000000E+00  0.00000000E+00  0.00000000E+00
  0.00000000E+00  0.00000000E+00  0.00000000E+00
  0.00000000E+00  0.00000000E+00  0.00000000E+00
  0.00000000E+00  0.00000000E+00  0.00000000E+00
  0.00000000E+00  0.00000000E+00  0.00000000E+00
  0.00000000E+00  0.00000000E+00  0.00000000E+00
  0.00000000E+00  0.00000000E+00  0.00000000E+00
  0.00000000E+00  0.00000000E+00  0.00000000E+00
  0.00000000E+00  0.00000000E+00  0.00000000E+00
  0.00000000E+00  0.00000000E+00  0.00000000E+00
  0.00000000E+00  0.00000000E+00  0.00000000E+00
  0.00000000E+00  0.00000000E+00  0.00000000E+00
  0.00000000E+00  0.00000000E+00  0.00000000E+00
  0.00000000E+00  0.00000000E+00  0.00000000E+00
  0.00000000E+00  0.00000000E+00  0.00000000E+00
  0.00000000E+00  0.00000000E+00  0.00000000E+00
  0.00000000E+00  0.00000000E+00  0.00000000E+00
  0.00000000E+00  0.00000000E+00  0.00000000E+00
  0.00000000E+00  0.00000000E+00  0.00000000E+00
  0.00000000E+00  0.00000000E+00  0.00000000E+00
  0.00000000E+00  0.00000000E+00  0.00000000E+00
  0.00000000E+00  0.00000000E+00  0.00000000E+00
  0.00000000E+00  0.00000000E+00  0.00000000E+00
  0.00000000E+00  0.00000000E+00  0.00000000E+00
  0.00000000E+00  0.00000000E+00  0.00000000E+00
  0.00000000E+00  0.00000000E+00  0.00000000E+00
  0.00000000E+00  0.00000000E+00  0.00000000E+00
  0.00000000E+00  0.00000000E+00  0.00000000E+00
  0.00000000E+00  0.00000000E+00  0.00000000E+00
  0.00000000E+00  0.00000000E+00  0.00000000E+00
  0.00000000E+00  0.00000000E+00  0.00000000E+00
  0.00000000E+00  0.00000000E+00  0.00000000E+00
  0.00000000E+00  0.00000000E+00  0.00000000E+00
  0.00000000E+00  0.00000000E+00  0.00000000E+00
  0.00000000E+00  0.00000000E+00  0.00000000E+00
  0.00000000E+00  0.00000000E+00  0.00000000E+00
  0.00000000E+00  0.00000000E+00  0.00000000E+00
  0.00000000E+00  0.00000000E+00  0.00000000E+00
  0.00000000E+00  0.00000000E+00  0.00000000E+00
  0.00000000E+00  0.00000000E+00  0.00000000E+00
  0.00000000E+00  0.00000000E+00  0.00000000E+00
  0.00000000E+00  0.00000000E+00  0.00000000E+00
  0.00000000E+00  0.00000000E+00  0.00000000E+00
  0.00000000E+00  0.00000000E+00  0.00000000E+00
  0.00000000E+00  0.00000000E+00  0.00000000E+00
