C  O  Pd
 1.0000000000000000
    11.0046904376558210    0.0000000000000000    0.0000000000000000
     0.0000000000000000   11.0046904376558210    0.0000000000000000
     0.0000000000000000    0.0000000000000000   27.7814912333251840
 C   O   Pd 
   1   1  80
Selective dynamics
Direct
 -0.1271355120484461  0.7284775771347101  0.3915974681401378   T   T   T
 -0.1260873606859158  0.7117502904591513  0.4338591389678333   T   T   T
  0.4980797943460252  0.7498294879288216  0.3390519727311312   T   T   T
  0.0000000000000000  0.5000000000000000  0.0539927820073487   F   F   F
  0.2500000000000000  0.0000000000000000  0.0539927820073487   F   F   F
  0.5000000000000000  0.0000000000000000  0.0539927820073487   F   F   F
  0.7500000000000000  0.0000000000000000  0.0539927820073487   F   F   F
  0.0000000000000000  0.2500000000000000  0.0539927820073487   F   F   F
  0.2500000000000000  0.2500000000000000  0.0539927820073487   F   F   F
  0.5000000000000000  0.2500000000000000  0.0539927820073487   F   F   F
  0.6250000000000001  0.1250000000000000  0.1240168419828507   F   F   F
  0.7500000000000000  0.2500000000000000  0.0539927820073487   F   F   F
  0.3750000000000000  0.1250000000000000  0.1240168419828507   F   F   F
  0.5000000000000000  0.5000000000000000  0.0539927820073487   F   F   F
  0.7500000000000000  0.5000000000000000  0.0539927820073487   F   F   F
  0.0000000000000000  0.7500000000000000  0.0539927820073487   F   F   F
  0.2500000000000000  0.7500000000000000  0.0539927820073487   F   F   F
  0.5000000000000000  0.7500000000000000  0.0539927820073487   F   F   F
  0.7500000000000000  0.7500000000000000  0.0539927820073487   F   F   F
  0.2500000000000000  0.5000000000000000  0.0539927820073487   F   F   F
  0.7462616493921962  0.7489036616001483  0.3418474900361456   T   T   T
  0.8750000000000000  0.1250000000000000  0.1240168419828507   F   F   F
  0.2495816170358377  0.2498283240660534  0.1954557854422423   F   F   F
  0.3750000000000000  0.3750000000000000  0.1240168419828507   F   F   F
  0.6250000000000001  0.3750000000000000  0.1240168419828507   F   F   F
  0.8750000000000000  0.3750000000000000  0.1240168419828507   F   F   F
  0.1250000000000000  0.6250000000000001  0.1240168419828507   F   F   F
  0.3750000000000000  0.6250000000000001  0.1240168419828507   F   F   F
  0.6250000000000001  0.6250000000000001  0.1240168419828507   F   F   F
  0.8750000000000000  0.6250000000000001  0.1240168419828507   F   F   F
  0.1250000000000000  0.1250000000000000  0.1240168419828507   F   F   F
  0.1250000000000000  0.8750000000000000  0.1240168419828507   F   F   F
  0.6250000000000001  0.8750000000000000  0.1240168419828507   F   F   F
  0.8750000000000000  0.8750000000000000  0.1240168419828507   F   F   F
 -0.0001865223782771 -0.0005358363309609  0.1954528618234272   F   F   F
  0.2494996826019091 -0.0002601716714344  0.1954792183184532   T   T   T
  0.4991154914544869 -0.0000095795313820  0.1954037447970013   F   F   F
  0.7491796396159673 -0.0004547015587631  0.1953589378559887   F   F   F
 -0.0000868507672391  0.2496564376260642  0.1954738637314449   T   T   T
  0.3750000000000000  0.8750000000000000  0.1240168419828507   F   F   F
  0.1250000000000000  0.3750000000000000  0.1240168419828507   F   F   F
  0.0000000000000000  0.0000000000000000  0.0539927820073487   F   F   F
 -0.0003238414299324  0.5000266384375744  0.1954197805719739   F   F   F
  0.4991718275965578  0.4998773029964603  0.1953944622164653   F   F   F
  0.7491346454095226  0.4999616629916024  0.1953842943956301   F   F   F
 -0.0008024448168588  0.7497242212874777  0.1955376495270650   T   T   T
  0.2490371987314564  0.7498578370136486  0.1957887547465327   T   T   T
  0.4993689541437403  0.7499341222395088  0.1956389745826902   T   T   T
  0.7493059950201940  0.7498103710904077  0.1955924895760937   T   T   T
  0.1244071436311060  0.1243525834801156  0.2669123108082239   T   T   T
  0.3741224291332612  0.1248403810320358  0.2669308461126069   T   T   T
  0.6239246438923739  0.1244130423436052  0.2668888173975707   T   T   T
  0.8741888776230863  0.1244627885324348  0.2666797328911389   T   T   T
  0.1244180893150959  0.3748510137401387  0.2668579601991361   T   T   T
  0.3741404442685148  0.3748323401913276  0.2669109275938450   T   T   T
  0.6239662376868718  0.3748239751889884  0.2669093279766138   T   T   T
  0.8740768371607907  0.3743711042588161  0.2667105390439319   T   T   T
  0.1231306618472385  0.6251172958017424  0.2674665463369056   T   T   T
  0.3735333531608144  0.6248018495159404  0.2672087512575399   T   T   T
  0.6239500104055451  0.6250876790088871  0.2673748621214334   T   T   T
  0.2495190487746454  0.4999395362912892  0.1954349399458140   F   F   F
  0.8735838145716917  0.6243942533470698  0.2670541086857439   T   T   T
  0.3736169595786161  0.8749433396555278  0.2672890242833323   T   T   T
  0.2496055063247508  0.2497608203710753  0.3386821316613723   T   T   T
  0.6241620822759159  0.8741747147814077  0.2675364981520084   T   T   T
  0.8735517901145229  0.8744640144970800  0.2671992876950147   T   T   T
 -0.0019225827012321  0.0013881790985172  0.3384402390158954   T   T   T
  0.2480989287054528 -0.0002190535152239  0.3388818625197736   T   T   T
  0.4981703002943388  0.0001480021415041  0.3388229939915842   T   T   T
  0.7484221913319241  0.0014638042191703  0.3385757956881357   T   T   T
 -0.0001443519711443  0.2492508419710814  0.3386195093276286   T   T   T
  0.4995510288061374  0.2499971808342539  0.3386997679893691   T   T   T
  0.1229692423092364  0.8737846687603039  0.2675872168133624   T   T   T
  0.7494959876692721  0.2492213311679567  0.3386359378220388   T   T   T
 -0.0017159612663722  0.4968449071381576  0.3385034419793883   T   T   T
  0.2483311283679217  0.4993774490180507  0.3388423246410420   T   T   T
  0.4980664912915636  0.4998291282321429  0.3387948526281180   T   T   T
  0.7481725697042627  0.4969284093932632  0.3386165123240302   T   T   T
 -0.0001755179940267  0.7489533164007308  0.3419366548080716   T   T   T
  0.2481998250034035  0.7495062384651570  0.3389927679272704   T   T   T
  0.7495778729064005  0.2497052529890452  0.1954593588498273   T   T   T
  0.4996616974103688  0.2498450675391411  0.1954631117699273   T   T   T
Cartesian
  0.0000000000000000  0.0000000000000000  0.0000000000000000
  0.0000000000000000  0.0000000000000000  0.0000000000000000
  0.0000000000000000  0.0000000000000000  0.0000000000000000
  0.0000000000000000  0.0000000000000000  0.0000000000000000
  0.0000000000000000  0.0000000000000000  0.0000000000000000
  0.0000000000000000  0.0000000000000000  0.0000000000000000
  0.0000000000000000  0.0000000000000000  0.0000000000000000
  0.0000000000000000  0.0000000000000000  0.0000000000000000
  0.0000000000000000  0.0000000000000000  0.0000000000000000
  0.0000000000000000  0.0000000000000000  0.0000000000000000
  0.0000000000000000  0.0000000000000000  0.0000000000000000
  0.0000000000000000  0.0000000000000000  0.0000000000000000
  0.0000000000000000  0.0000000000000000  0.0000000000000000
  0.0000000000000000  0.0000000000000000  0.0000000000000000
  0.0000000000000000  0.0000000000000000  0.0000000000000000
  0.0000000000000000  0.0000000000000000  0.0000000000000000
  0.0000000000000000  0.0000000000000000  0.0000000000000000
  0.0000000000000000  0.0000000000000000  0.0000000000000000
  0.0000000000000000  0.0000000000000000  0.0000000000000000
  0.0000000000000000  0.0000000000000000  0.0000000000000000
  0.0000000000000000  0.0000000000000000  0.0000000000000000
  0.0000000000000000  0.0000000000000000  0.0000000000000000
  0.0000000000000000  0.0000000000000000  0.0000000000000000
  0.0000000000000000  0.0000000000000000  0.0000000000000000
  0.0000000000000000  0.0000000000000000  0.0000000000000000
  0.0000000000000000  0.0000000000000000  0.0000000000000000
  0.0000000000000000  0.0000000000000000  0.0000000000000000
  0.0000000000000000  0.0000000000000000  0.0000000000000000
  0.0000000000000000  0.0000000000000000  0.0000000000000000
  0.0000000000000000  0.0000000000000000  0.0000000000000000
  0.0000000000000000  0.0000000000000000  0.0000000000000000
  0.0000000000000000  0.0000000000000000  0.0000000000000000
  0.0000000000000000  0.0000000000000000  0.0000000000000000
  0.0000000000000000  0.0000000000000000  0.0000000000000000
  0.0000000000000000  0.0000000000000000  0.0000000000000000
  0.0000000000000000  0.0000000000000000  0.0000000000000000
  0.0000000000000000  0.0000000000000000  0.0000000000000000
  0.0000000000000000  0.0000000000000000  0.0000000000000000
  0.0000000000000000  0.0000000000000000  0.0000000000000000
  0.0000000000000000  0.0000000000000000  0.0000000000000000
  0.0000000000000000  0.0000000000000000  0.0000000000000000
  0.0000000000000000  0.0000000000000000  0.0000000000000000
  0.0000000000000000  0.0000000000000000  0.0000000000000000
  0.0000000000000000  0.0000000000000000  0.0000000000000000
  0.0000000000000000  0.0000000000000000  0.0000000000000000
  0.0000000000000000  0.0000000000000000  0.0000000000000000
  0.0000000000000000  0.0000000000000000  0.0000000000000000
  0.0000000000000000  0.0000000000000000  0.0000000000000000
  0.0000000000000000  0.0000000000000000  0.0000000000000000
  0.0000000000000000  0.0000000000000000  0.0000000000000000
  0.0000000000000000  0.0000000000000000  0.0000000000000000
  0.0000000000000000  0.0000000000000000  0.0000000000000000
  0.0000000000000000  0.0000000000000000  0.0000000000000000
  0.0000000000000000  0.0000000000000000  0.0000000000000000
  0.0000000000000000  0.0000000000000000  0.0000000000000000
  0.0000000000000000  0.0000000000000000  0.0000000000000000
  0.0000000000000000  0.0000000000000000  0.0000000000000000
  0.0000000000000000  0.0000000000000000  0.0000000000000000
  0.0000000000000000  0.0000000000000000  0.0000000000000000
  0.0000000000000000  0.0000000000000000  0.0000000000000000
  0.0000000000000000  0.0000000000000000  0.0000000000000000
  0.0000000000000000  0.0000000000000000  0.0000000000000000
  0.0000000000000000  0.0000000000000000  0.0000000000000000
  0.0000000000000000  0.0000000000000000  0.0000000000000000
  0.0000000000000000  0.0000000000000000  0.0000000000000000
  0.0000000000000000  0.0000000000000000  0.0000000000000000
  0.0000000000000000  0.0000000000000000  0.0000000000000000
  0.0000000000000000  0.0000000000000000  0.0000000000000000
  0.0000000000000000  0.0000000000000000  0.0000000000000000
  0.0000000000000000  0.0000000000000000  0.0000000000000000
  0.0000000000000000  0.0000000000000000  0.0000000000000000
  0.0000000000000000  0.0000000000000000  0.0000000000000000
  0.0000000000000000  0.0000000000000000  0.0000000000000000
  0.0000000000000000  0.0000000000000000  0.0000000000000000
  0.0000000000000000  0.0000000000000000  0.0000000000000000
  0.0000000000000000  0.0000000000000000  0.0000000000000000
  0.0000000000000000  0.0000000000000000  0.0000000000000000
  0.0000000000000000  0.0000000000000000  0.0000000000000000
  0.0000000000000000  0.0000000000000000  0.0000000000000000
  0.0000000000000000  0.0000000000000000  0.0000000000000000
  0.0000000000000000  0.0000000000000000  0.0000000000000000
  0.0000000000000000  0.0000000000000000  0.0000000000000000
