C  H  O  Pd
 1.0000000000000000
    12.2143708368485502    0.0000000000000000    0.0000000000000007
     0.0000000000000017   10.8116922467861709    0.0000000000000007
     0.0000000000000000    0.0000000000000000   29.2503334901734533
 C   H   O   Pd 
   2   3  50  56
Selective dynamics
Direct
  0.3850429582906388  0.0789796847276306  0.4327009958653081   T   T   T
  0.6390645017600075 -0.1851722158305256  0.4151877917745929   T   T   T
  0.4618730225505782  0.0580742884535811  0.4510723181154159   T   T   T
  0.3144765685179399  0.0544117849812166  0.4545721349893760   T   T   T
  0.3818281431158230  0.0234611274406937  0.4007832048391701   T   T   T
  0.5000000000000000  0.1250000000000000  0.1034790374483450   F   F   F
  0.5000000000000000  0.3750000000000000  0.1034790374483450   F   F   F
  0.2507725963104829  0.8756663499692052  0.3139500631422064   T   T   T
  0.2500402715442200  0.6255057400708486  0.2087427952592356   T   T   T
  0.2501398557543885  0.8744829874145316  0.2087270239012680   T   T   T
  0.2500000000000000  0.6250000000000000  0.1034790374483450   F   F   F
  0.2507359000057102  0.6241439058654737  0.3142644284194712   T   T   T
  0.5000000000000000  0.8750000000000001  0.1034790374483450   F   F   F
  0.5000000000000000  0.6250000000000000  0.1034790374483450   F   F   F
  0.4999668255327456  0.8748242136122911  0.2085256850599934   F   F   F
  0.7541951785871195  0.6260767722886973  0.3138471919261701   T   T   T
  0.5003743969644501  0.3743718701018379  0.2085750477755060   F   F   F
  0.7533041096184796  0.8774077266815093  0.3131223571858520   T   T   T
  0.7502712495914804  0.6257937732527635  0.2087381342284273   T   T   T
  0.7503053127252618  0.8745121917668370  0.2086545688141024   T   T   T
  0.7500000000000000  0.6250000000000000  0.1034790374483450   F   F   F
  0.2500000000000000  0.8750000000000001  0.1034790374483450   F   F   F
  0.7500000000000000  0.8750000000000001  0.1034790374483450   F   F   F
  0.6420328897204413 -0.1277428690080797  0.4498950120881429   T   T   T
  0.3806722330502447  0.2093436737437724  0.4231589211273211   T   T   T
  0.4998036990149505  0.6255443932605581  0.2086023373634177   F   F   F
  0.4999120480408665  0.1252932604835631  0.2085360187356630   F   F   F
  0.5011088523348342  0.1228883555636103  0.3127154717296579   T   T   T
  0.7499999407901679  0.1253564590539261  0.2086346494759109   T   T   T
  0.5054129700468019  0.3772520164347166  0.3127855630518354   T   T   T
  0.0000000000000000  0.6250000000000000  0.1034790374483450   F   F   F
  0.2515799237946363  0.1236433744655098  0.3134769050437511   T   T   T
  0.7503527563762113  0.3768954187818070  0.3141387888582416   T   T   T
  0.5013836212549858  0.8753980400629061  0.3131475393114984   T   T   T
  0.4994580555221775  0.6254317157737526  0.3131942302157398   T   T   T
  0.7500000000000000  0.3750000000000000  0.1034790374483450   F   F   F
  0.2475758460631696  0.3758239443016491  0.3137169379476868   T   T   T
  0.0000001717890977  0.6253564676804197  0.2086346535078811   T   T   T
  1.0003313673956533  0.8770799888209551  0.3139022081511086   T   T   T
  1.0031075344803031  0.1260085867286310  0.3144670495353886   T   T   T
  1.0014083235250477  0.3759279540850066  0.3144845558763230   T   T   T
 -0.0000080203622645  0.8743677840708122  0.2087380777582118   T   T   T
  0.0000000906673265  0.3746433398517112  0.2086346491200444   T   T   T
  0.2500000000000000  0.3750000000000000  0.1034790374483450   F   F   F
 -0.0000000000000000  0.8750000000000001  0.1034790374483450   F   F   F
  0.2497348554074512  0.3742839462429005  0.2087648110614987   T   T   T
  0.2500000000000000  0.1250000000000000  0.1034790374483450   F   F   F
  0.2500640955085435  0.1254157464597392  0.2086967885577589   T   T   T
  0.0000000000000000  0.3750000000000000  0.1034790374483450   F   F   F
  0.0000000000000000  0.1250000000000000  0.1034790374483450   F   F   F
  0.7500000000000000  0.1250000000000000  0.1034790374483450   F   F   F
  0.7500000113728454  0.3746434304486337  0.2086345460683278   T   T   T
  0.0000305227764935  0.1256328321844056  0.2087120263170072   T   T   T
  0.7500218693052941  0.1253549918195473  0.3140294994916319   T   T   T
 -0.0003710501174665  0.6257896660504564  0.3147543715797999   T   T   T
  0.8764148642289095  0.0031271955980063  0.3122362909141894   T   T   T
  0.7509939072535667  0.2505202974257151  0.2618269456729510   T   T   T
  0.7525716042661872  0.7506846221167242  0.2623100705542085   T   T   T
  0.8761834327038556  0.4996408671615353  0.3126959102958742   T   T   T
  0.7500001417602953  0.7499994873041090  0.1560720019688409   F   F   F
  0.8750002628252658  0.9999999076726724  0.2083511414037477   F   F   F
  0.7499999492943173  0.2499998973890912  0.1560719005187454   F   F   F
  0.0000000305378639  0.2499999899091724  0.1560719922121782   F   F   F
  0.1250000490227787  0.9999999537391714  0.2083512510515163   F   F   F
  0.1268401744516894  1.0003338005722313  0.3117246934675297   T   T   T
  0.0000000000000000  0.2500000000000000  0.0512814666029016   F   F   F
  0.5444666985025107  0.7420406502197855  0.3706734309499477   T   T   T
  1.0005881406392960  0.2505466888404388  0.2619156014550096   T   T   T
  0.8750003526753075  0.4999998740212845  0.2083512073452132   F   F   F
  0.7500000000000000  0.7500000000000000  0.0512814666029016   F   F   F
  0.8750000000000000  0.5000000000000000  0.1034790374483450   F   F   F
  1.0416686172425784  0.2522986193505164  0.3680190007295960   T   T   T
  0.3763975584266206  0.9993467213291798  0.3109692471868479   T   T   T
  0.6250000282706359  0.5000001736904404  0.2083512799526737   F   F   F
  0.6278706011350438  0.5033941429231268  0.3113111627459236   T   T   T
  0.3750000000000000  0.0000000000000000  0.1034790374483450   F   F   F
  0.8750000000000000  0.0000000000000000  0.1034790374483450   F   F   F
  0.7141512503244464  0.2521606472318265  0.3678326233840277   T   T   T
  0.1250000000000000  0.5000000000000000  0.1034790374483450   F   F   F
  0.5027618430327383  0.2485466236177619  0.2617999296456860   T   T   T
  0.7632877455066033  0.7565738157211823  0.3755756228519209   T   T   T
  0.2500001174677877  0.2500001432992012  0.1560720953180006   F   F   F
  0.5000000000000000  0.2500000000000000  0.0512814666029016   F   F   F
  0.2500000128051262  0.7499998164578953  0.1560720125206892   F   F   F
  0.2724282199899404  0.2792212985627276  0.3733225770039545   T   T   T
  0.2485130754962314  0.2485025070482579  0.2621587329696618   T   T   T
  0.2500000000000000  0.2500000000000000  0.0512814666029016   F   F   F
  0.3750000000000000  0.5000000000000000  0.1034790374483450   F   F   F
  0.3749999192595975  0.4999999237622314  0.2083514410374566   F   F   F
  0.6250000000000000  0.0000000000000000  0.1034790374483450   F   F   F
  0.2500000000000000  0.7500000000000000  0.0512814666029016   F   F   F
  0.4992469982625450  0.7507799233824732  0.2617830510255196   T   T   T
  0.6250001596235294  0.9999998419141339  0.2083511880761280   F   F   F
  0.4999999644933695  0.7499995734433390  0.1560719522146622   F   F   F
  0.1250000000000000  0.0000000000000000  0.1034790374483450   F   F   F
  0.1250001864597102  0.4999997469804928  0.2083513416983053   F   F   F
  0.5000000000000000  0.7500000000000000  0.0512814666029016   F   F   F
  0.0000095275857415  0.7502767918073265  0.2622341639887122   T   T   T
  0.4833902456340851  0.2821868447993653  0.3727458638181487   T   T   T
  0.1245423238159958  0.5017197490931135  0.3127776386619170   T   T   T
  0.6259970671058440  0.0000899820336552  0.3103497413963390   T   T   T
  0.9937662938494897  0.7536867402279179  0.3715953135339297   T   T   T
  0.5000000770400611  0.2499999680531972  0.1560718497316933   F   F   F
  0.2506244711802666  0.7497774376145837  0.2618741676268438   T   T   T
  0.0000002340500750  0.7499998236723172  0.1560719263822670   F   F   F
  0.3757934076479886  0.5006154238848310  0.3114207406742481   T   T   T
  0.7500000000000000  0.2500000000000000  0.0512814666029016   F   F   F
  0.2248516419473092  0.7505988414749700  0.3688794930911839   T   T   T
  0.0000000000000000  0.7500000000000000  0.0512814666029016   F   F   F
  0.6250000000000000  0.5000000000000000  0.1034790374483450   F   F   F
  0.3749999766530777  0.0000000103848568  0.2083513401927624   F   F   F
Cartesian
  0.0000000000000000  0.0000000000000000  0.0000000000000000
  0.0000000000000000  0.0000000000000000  0.0000000000000000
  0.0000000000000000  0.0000000000000000  0.0000000000000000
  0.0000000000000000  0.0000000000000000  0.0000000000000000
  0.0000000000000000  0.0000000000000000  0.0000000000000000
  0.0000000000000000  0.0000000000000000  0.0000000000000000
  0.0000000000000000  0.0000000000000000  0.0000000000000000
  0.0000000000000000  0.0000000000000000  0.0000000000000000
  0.0000000000000000  0.0000000000000000  0.0000000000000000
  0.0000000000000000  0.0000000000000000  0.0000000000000000
  0.0000000000000000  0.0000000000000000  0.0000000000000000
  0.0000000000000000  0.0000000000000000  0.0000000000000000
  0.0000000000000000  0.0000000000000000  0.0000000000000000
  0.0000000000000000  0.0000000000000000  0.0000000000000000
  0.0000000000000000  0.0000000000000000  0.0000000000000000
  0.0000000000000000  0.0000000000000000  0.0000000000000000
  0.0000000000000000  0.0000000000000000  0.0000000000000000
  0.0000000000000000  0.0000000000000000  0.0000000000000000
  0.0000000000000000  0.0000000000000000  0.0000000000000000
  0.0000000000000000  0.0000000000000000  0.0000000000000000
  0.0000000000000000  0.0000000000000000  0.0000000000000000
  0.0000000000000000  0.0000000000000000  0.0000000000000000
  0.0000000000000000  0.0000000000000000  0.0000000000000000
  0.0000000000000000  0.0000000000000000  0.0000000000000000
  0.0000000000000000  0.0000000000000000  0.0000000000000000
  0.0000000000000000  0.0000000000000000  0.0000000000000000
  0.0000000000000000  0.0000000000000000  0.0000000000000000
  0.0000000000000000  0.0000000000000000  0.0000000000000000
  0.0000000000000000  0.0000000000000000  0.0000000000000000
  0.0000000000000000  0.0000000000000000  0.0000000000000000
  0.0000000000000000  0.0000000000000000  0.0000000000000000
  0.0000000000000000  0.0000000000000000  0.0000000000000000
  0.0000000000000000  0.0000000000000000  0.0000000000000000
  0.0000000000000000  0.0000000000000000  0.0000000000000000
  0.0000000000000000  0.0000000000000000  0.0000000000000000
  0.0000000000000000  0.0000000000000000  0.0000000000000000
  0.0000000000000000  0.0000000000000000  0.0000000000000000
  0.0000000000000000  0.0000000000000000  0.0000000000000000
  0.0000000000000000  0.0000000000000000  0.0000000000000000
  0.0000000000000000  0.0000000000000000  0.0000000000000000
  0.0000000000000000  0.0000000000000000  0.0000000000000000
  0.0000000000000000  0.0000000000000000  0.0000000000000000
  0.0000000000000000  0.0000000000000000  0.0000000000000000
  0.0000000000000000  0.0000000000000000  0.0000000000000000
  0.0000000000000000  0.0000000000000000  0.0000000000000000
  0.0000000000000000  0.0000000000000000  0.0000000000000000
  0.0000000000000000  0.0000000000000000  0.0000000000000000
  0.0000000000000000  0.0000000000000000  0.0000000000000000
  0.0000000000000000  0.0000000000000000  0.0000000000000000
  0.0000000000000000  0.0000000000000000  0.0000000000000000
  0.0000000000000000  0.0000000000000000  0.0000000000000000
  0.0000000000000000  0.0000000000000000  0.0000000000000000
  0.0000000000000000  0.0000000000000000  0.0000000000000000
  0.0000000000000000  0.0000000000000000  0.0000000000000000
  0.0000000000000000  0.0000000000000000  0.0000000000000000
  0.0000000000000000  0.0000000000000000  0.0000000000000000
  0.0000000000000000  0.0000000000000000  0.0000000000000000
  0.0000000000000000  0.0000000000000000  0.0000000000000000
  0.0000000000000000  0.0000000000000000  0.0000000000000000
  0.0000000000000000  0.0000000000000000  0.0000000000000000
  0.0000000000000000  0.0000000000000000  0.0000000000000000
  0.0000000000000000  0.0000000000000000  0.0000000000000000
  0.0000000000000000  0.0000000000000000  0.0000000000000000
  0.0000000000000000  0.0000000000000000  0.0000000000000000
  0.0000000000000000  0.0000000000000000  0.0000000000000000
  0.0000000000000000  0.0000000000000000  0.0000000000000000
  0.0000000000000000  0.0000000000000000  0.0000000000000000
  0.0000000000000000  0.0000000000000000  0.0000000000000000
  0.0000000000000000  0.0000000000000000  0.0000000000000000
  0.0000000000000000  0.0000000000000000  0.0000000000000000
  0.0000000000000000  0.0000000000000000  0.0000000000000000
  0.0000000000000000  0.0000000000000000  0.0000000000000000
  0.0000000000000000  0.0000000000000000  0.0000000000000000
  0.0000000000000000  0.0000000000000000  0.0000000000000000
  0.0000000000000000  0.0000000000000000  0.0000000000000000
  0.0000000000000000  0.0000000000000000  0.0000000000000000
  0.0000000000000000  0.0000000000000000  0.0000000000000000
  0.0000000000000000  0.0000000000000000  0.0000000000000000
  0.0000000000000000  0.0000000000000000  0.0000000000000000
  0.0000000000000000  0.0000000000000000  0.0000000000000000
  0.0000000000000000  0.0000000000000000  0.0000000000000000
  0.0000000000000000  0.0000000000000000  0.0000000000000000
  0.0000000000000000  0.0000000000000000  0.0000000000000000
  0.0000000000000000  0.0000000000000000  0.0000000000000000
  0.0000000000000000  0.0000000000000000  0.0000000000000000
  0.0000000000000000  0.0000000000000000  0.0000000000000000
  0.0000000000000000  0.0000000000000000  0.0000000000000000
  0.0000000000000000  0.0000000000000000  0.0000000000000000
  0.0000000000000000  0.0000000000000000  0.0000000000000000
  0.0000000000000000  0.0000000000000000  0.0000000000000000
  0.0000000000000000  0.0000000000000000  0.0000000000000000
  0.0000000000000000  0.0000000000000000  0.0000000000000000
  0.0000000000000000  0.0000000000000000  0.0000000000000000
  0.0000000000000000  0.0000000000000000  0.0000000000000000
  0.0000000000000000  0.0000000000000000  0.0000000000000000
  0.0000000000000000  0.0000000000000000  0.0000000000000000
  0.0000000000000000  0.0000000000000000  0.0000000000000000
  0.0000000000000000  0.0000000000000000  0.0000000000000000
  0.0000000000000000  0.0000000000000000  0.0000000000000000
  0.0000000000000000  0.0000000000000000  0.0000000000000000
  0.0000000000000000  0.0000000000000000  0.0000000000000000
  0.0000000000000000  0.0000000000000000  0.0000000000000000
  0.0000000000000000  0.0000000000000000  0.0000000000000000
  0.0000000000000000  0.0000000000000000  0.0000000000000000
  0.0000000000000000  0.0000000000000000  0.0000000000000000
  0.0000000000000000  0.0000000000000000  0.0000000000000000
  0.0000000000000000  0.0000000000000000  0.0000000000000000
  0.0000000000000000  0.0000000000000000  0.0000000000000000
  0.0000000000000000  0.0000000000000000  0.0000000000000000
  0.0000000000000000  0.0000000000000000  0.0000000000000000
  0.0000000000000000  0.0000000000000000  0.0000000000000000
