SYSTEM = pddmc
ENCUT = 600
PREC = Accurate
LASPH = .TRUE.
ADDGRID = .TRUE.
ISPIN = 2
IVDW = 12
EDIFF = 1e-06
NELM = 200
NELMIN = 5
ALGO = Normal
NCORE = 1
LREAL = .FALSE.
LWAVE = .FALSE.
LCHARG = .FALSE.
LORBIT = 11
ISYM = 2
IBRION = -1
NSW = 0
ISIF = 0
ISMEAR = 0
SIGMA = 0.05
EDIFFG = -0.01
