O  Pd                                   
    1.000000000000000     
    12.2143708368485502    0.0000000000000000    0.0000000000000007
     0.0000000000000017   10.8116922467861709    0.0000000000000007
     0.0000000000000000    0.0000000000000000   30.6875744822424821
   O    Pd
    64    64
Selective dynamics
Direct
  0.2499963489716799  0.6192270046609514  0.3948464129910979   T   T   T
  0.4999994285630460  0.1192332906598705  0.3948468997863947   T   T   T
  0.5000052261208345  0.3807732446547312  0.3948458332291095   T   T   T
  0.4999993586863229  0.1251563877952871  0.2984132486490859   T   T   T
  0.5000011607343312  0.3748448452367742  0.2984134816644083   T   T   T
  0.4999998368048840  0.1253637532206347  0.1990388322615649   T   T   T
  0.4999999938080711  0.3746360868658646  0.1990385922315757   T   T   T
  0.5000000000000000  0.1250000000000000  0.0986326357059468   F   F   F
  0.5000000000000000  0.3750000000000000  0.0986326357059468   F   F   F
  0.7499997048893148  0.8807705245475718  0.3948467331847484   T   T   T
  0.2499995326347881  0.8807663911147592  0.3948474738356171   T   T   T
  0.2499978547458891  0.6251569209333960  0.2984138711834604   T   T   T
  0.2499983372914695  0.8748421109171712  0.2984136830501940   T   T   T
  0.2500000575081164  0.6253646356490544  0.1990388586176256   T   T   T
  0.2500000725690806  0.8746359244060554  0.1990388968624472   T   T   T
  0.2500000000000000  0.6250000000000000  0.0986326357059468   F   F   F
  0.2500000000000000  0.8750000000000000  0.0986326357059468   F   F   F
  0.2499972496038705  0.1192316304127714  0.3948469576665368   T   T   T
  0.5000000000000000  0.8750000000000000  0.0986326357059468   F   F   F
  0.5000000000000000  0.6250000000000000  0.0986326357059468   F   F   F
  0.4999995794704318  0.8746354974934156  0.1990386872989469   T   T   T
  0.5000001784867202  0.6253637522044813  0.1990389446145577   T   T   T
  0.7500021546900373  0.6251580983320473  0.2984135681363432   T   T   T
  0.7500014446944675  0.8748426324759092  0.2984132363987985   T   T   T
  0.7500002133337713  0.6253633161861426  0.1990388060063935   T   T   T
  0.7500002014178648  0.8746343896298040  0.1990386967425212   T   T   T
  0.7500000000000000  0.6250000000000000  0.0986326357059468   F   F   F
  0.7500000000000000  0.8750000000000000  0.0986326357059468   F   F   F
  0.7500018279496279  0.1192346012841633  0.3948470043873527   T   T   T
  0.7500020595198519  0.3807687542113778  0.3948471785088636   T   T   T
  0.2499972584520617  0.3807698608617292  0.3948464239040396   T   T   T
  0.7500009036252486  0.1251573868578949  0.2984130726073639   T   T   T
  0.7500000114023815  0.1253633646095497  0.1990386859845709   T   T   T
  0.7500004982174804  0.3746360905691121  0.1990382815073973   T   T   T
  0.7500000000000000  0.1250000000000000  0.0986326357059468   F   F   F
  0.7500000000000000  0.3750000000000000  0.0986326357059468   F   F   F
  0.5000027575946848  0.6192327112100864  0.3948461380374630   T   T   T
  0.5000022130516295  0.8807701500816760  0.3948465823144167   T   T   T
  0.4999995241195061  0.6251576377745244  0.2984135771708376   T   T   T
  0.4999991483881388  0.8748436499347438  0.2984134675114508   T   T   T
  0.7500005261834509  0.3748436686042540  0.2984133929323897   T   T   T
  0.2499985928795354  0.1251577102369661  0.2984138203405174   T   T   T
  0.7500039360962643  0.6192379369579648  0.3948472603358653   T   T   T
  0.9999976127870276  0.8807656019569058  0.3948472206893619   T   T   T
  0.0000000000000000  0.6250000000000000  0.0986326357059468   F   F   F
  0.2499990971454306  0.3748422129200649  0.2984136947682297   T   T   T
  0.0000007859582205  0.1192323009899872  0.3948469444419963   T   T   T
  0.0000007785774361  0.8746366631057727  0.1990387117510663   T   T   T
  0.9999950098749282  0.3807652926942324  0.3948474421195944   T   T   T
  0.0000001489023768  0.6253641828117400  0.1990385236877962   T   T   T
  0.0000002782395681  0.8748424435412614  0.2984133351438486   T   T   T
  0.0000001306367561  0.1251578373608978  0.2984132301819021   T   T   T
  0.0000000137216090  0.6251567985390070  0.2984134212898087   T   T   T
  0.9999987475446989  0.3748419360337757  0.2984132756741897   T   T   T
  0.9999966276052427  0.6192325394572501  0.3948477091615779   T   T   T
  0.0000003667133454  0.1253639748692094  0.1990386316366852   T   T   T
  0.0000002712633380  0.3746360819220365  0.1990386009744299   T   T   T
  0.2500000000000000  0.3750000000000000  0.0986326357059468   F   F   F
  0.0000000000000000  0.8750000000000000  0.0986326357059468   F   F   F
  0.2499998638177366  0.3746354513558036  0.1990391137478614   T   T   T
  0.2500000000000000  0.1250000000000000  0.0986326357059468   F   F   F
  0.2500003118916107  0.1253643742758414  0.1990388468832426   T   T   T
  0.0000000000000000  0.3750000000000000  0.0986326357059468   F   F   F
  0.0000000000000000  0.1250000000000000  0.0986326357059468   F   F   F
  0.6249931947191604  0.4999962364829461  0.3902445096437201   T   T   T
  0.8750018030601668  0.4999987557406577  0.3902448182756716   T   T   T
  0.0000000000000000  0.7500000000000000  0.0488797184302712   F   F   F
  0.7500015010650593  0.7500018368231416  0.3503151923766382   T   T   T
  0.1250000000000000  0.0000000000000000  0.0986326357059468   F   F   F
  0.7500000000000000  0.2500000000000000  0.0488797184302712   F   F   F
  0.8750000000000000  0.0000000000000000  0.0986326357059468   F   F   F
  0.8750004860844528  0.4999996389777062  0.2974468411495454   T   T   T
  0.1249995278573180  0.0000023240367313  0.3902454854876728   T   T   T
  0.7500000714258059  0.2500001333654533  0.1487767298788664   T   T   T
  0.8749990435797279  0.9999988729247118  0.1993176942245059   T   T   T
  0.7499999695802716  0.7499987873488344  0.1487766346932499   T   T   T
  0.1249992154568337  0.0000000621413549  0.1993179005561505   T   T   T
  0.7500011419260140  0.7500009734043042  0.2492123859263274   T   T   T
  0.7499992774364442  0.2499985362179773  0.2492112277572283   T   T   T
  0.8749994074936628  0.0000010605527513  0.2974468216307652   T   T   T
  0.0000001104490266  0.2500003692293262  0.1487770372582357   T   T   T
  0.1249984270667601  0.9999989319665524  0.2974470614436001   T   T   T
  0.7500000563430463  0.2500015278470175  0.3503127062776116   T   T   T
  0.5000005926122579  0.7500030473682960  0.3503150786014260   T   T   T
  0.8749995645681736  0.9999986405573689  0.3902444982275266   T   T   T
  0.0000001117792159  0.2499993209911385  0.2492117582963832   T   T   T
  0.8749998623887099  0.5000001886345932  0.1993177285951360   T   T   T
  0.7500000000000000  0.7500000000000000  0.0488797184302712   F   F   F
  0.8750000000000000  0.5000000000000000  0.0986326357059468   F   F   F
  0.9999996052540586  0.2499980657621146  0.3503150463261359   T   T   T
  0.3750008415318401  0.0000002870816226  0.2974471285183138   T   T   T
  0.6249997369785575  0.5000005243672183  0.1993177510521300   T   T   T
  0.6249983335254518  0.5000010438876417  0.2974469904614432   T   T   T
  0.3749996498949133  0.5000006403206654  0.3902442123285328   T   T   T
  0.2499992068909459  0.7499998321897504  0.3503136063717849   T   T   T
  0.3750000000000000  0.0000000000000000  0.0986326357059468   F   F   F
  0.3749993920389837  0.4999999271557620  0.2974475041401146   T   T   T
  0.2499991833826943  0.7500000747626808  0.2492120003364678   T   T   T
  0.2500001827845806  0.2500004790494265  0.1487770501254799   T   T   T
  0.2500000000000000  0.2500000000000000  0.0488797184302712   F   F   F
  0.3750004864510694  0.5000000253507203  0.1993181014519463   T   T   T
  0.3750013085010481  0.9999996425241101  0.1993178715196733   T   T   T
  0.3750000000000000  0.5000000000000000  0.0986326357059468   F   F   F
  0.2500000000000000  0.7500000000000000  0.0488797184302712   F   F   F
  0.2499995758311099  0.2499999627361077  0.2492124661762335   T   T   T
  0.3750016041751971  0.0000000368207611  0.3902450176313195   T   T   T
  0.2499986172312925  0.2499956791338171  0.3503155160207978   T   T   T
  0.2500002436688700  0.7499998371993483  0.1487767841964014   T   T   T
  0.5000000000000000  0.2500000000000000  0.0488797184302712   F   F   F
  0.6250000000000000  0.0000000000000000  0.0986326357059468   F   F   F
  0.1250055595257611  0.5000035436833763  0.3902451282262078   T   T   T
  0.4999995415802328  0.7500000470653199  0.2492120188824464   T   T   T
  0.0000000644614895  0.7499997055339563  0.1487767856559003   T   T   T
  0.5000000890861059  0.7499991063848872  0.1487764921061197   T   T   T
  0.1250005006673170  0.4999996619028680  0.1993179793341455   T   T   T
  0.6250000000000000  0.5000000000000000  0.0986326357059468   F   F   F
  0.5000000000000000  0.7500000000000000  0.0488797184302712   F   F   F
  0.0000007136899216  0.7500006108950721  0.2492113691138941   T   T   T
  0.6249985593236530  0.9999972996585728  0.3902445425495260   T   T   T
  0.5000001150845368  0.2500005822600138  0.3503130816268103   T   T   T
  0.1250007579948388  0.4999998104401656  0.2974473172679500   T   T   T
  0.6249994232750548  0.0000011485494329  0.2974468911387121   T   T   T
  0.5000001044439367  0.2499990997490891  0.2492115220291236   T   T   T
  0.9999995648853390  0.7500014093961778  0.3503136564887818   T   T   T
  0.6250011512513076  0.9999984342009582  0.1993176556340738   T   T   T
  0.5000000412290440  0.2500002002978380  0.1487764123606149   T   T   T
  0.1250000000000000  0.5000000000000000  0.0986326357059468   F   F   F
  0.0000000000000000  0.2500000000000000  0.0488797184302712   F   F   F
 
  0.00000000E+00  0.00000000E+00  0.00000000E+00
  0.00000000E+00  0.00000000E+00  0.00000000E+00
  0.00000000E+00  0.00000000E+00  0.00000000E+00
  0.00000000E+00  0.00000000E+00  0.00000000E+00
  0.00000000E+00  0.00000000E+00  0.00000000E+00
  0.00000000E+00  0.00000000E+00  0.00000000E+00
  0.00000000E+00  0.00000000E+00  0.00000000E+00
  0.00000000E+00  0.00000000E+00  0.00000000E+00
  0.00000000E+00  0.00000000E+00  0.00000000E+00
  0.00000000E+00  0.00000000E+00  0.00000000E+00
  0.00000000E+00  0.00000000E+00  0.00000000E+00
  0.00000000E+00  0.00000000E+00  0.00000000E+00
  0.00000000E+00  0.00000000E+00  0.00000000E+00
  0.00000000E+00  0.00000000E+00  0.00000000E+00
  0.00000000E+00  0.00000000E+00  0.00000000E+00
  0.00000000E+00  0.00000000E+00  0.00000000E+00
  0.00000000E+00  0.00000000E+00  0.00000000E+00
  0.00000000E+00  0.00000000E+00  0.00000000E+00
  0.00000000E+00  0.00000000E+00  0.00000000E+00
  0.00000000E+00  0.00000000E+00  0.00000000E+00
  0.00000000E+00  0.00000000E+00  0.00000000E+00
  0.00000000E+00  0.00000000E+00  0.00000000E+00
  0.00000000E+00  0.00000000E+00  0.00000000E+00
  0.00000000E+00  0.00000000E+00  0.00000000E+00
  0.00000000E+00  0.00000000E+00  0.00000000E+00
  0.00000000E+00  0.00000000E+00  0.00000000E+00
  0.00000000E+00  0.00000000E+00  0.00000000E+00
  0.00000000E+00  0.00000000E+00  0.00000000E+00
  0.00000000E+00  0.00000000E+00  0.00000000E+00
  0.00000000E+00  0.00000000E+00  0.00000000E+00
  0.00000000E+00  0.00000000E+00  0.00000000E+00
  0.00000000E+00  0.00000000E+00  0.00000000E+00
  0.00000000E+00  0.00000000E+00  0.00000000E+00
  0.00000000E+00  0.00000000E+00  0.00000000E+00
  0.00000000E+00  0.00000000E+00  0.00000000E+00
  0.00000000E+00  0.00000000E+00  0.00000000E+00
  0.00000000E+00  0.00000000E+00  0.00000000E+00
  0.00000000E+00  0.00000000E+00  0.00000000E+00
  0.00000000E+00  0.00000000E+00  0.00000000E+00
  0.00000000E+00  0.00000000E+00  0.00000000E+00
  0.00000000E+00  0.00000000E+00  0.00000000E+00
  0.00000000E+00  0.00000000E+00  0.00000000E+00
  0.00000000E+00  0.00000000E+00  0.00000000E+00
  0.00000000E+00  0.00000000E+00  0.00000000E+00
  0.00000000E+00  0.00000000E+00  0.00000000E+00
  0.00000000E+00  0.00000000E+00  0.00000000E+00
  0.00000000E+00  0.00000000E+00  0.00000000E+00
  0.00000000E+00  0.00000000E+00  0.00000000E+00
  0.00000000E+00  0.00000000E+00  0.00000000E+00
  0.00000000E+00  0.00000000E+00  0.00000000E+00
  0.00000000E+00  0.00000000E+00  0.00000000E+00
  0.00000000E+00  0.00000000E+00  0.00000000E+00
  0.00000000E+00  0.00000000E+00  0.00000000E+00
  0.00000000E+00  0.00000000E+00  0.00000000E+00
  0.00000000E+00  0.00000000E+00  0.00000000E+00
  0.00000000E+00  0.00000000E+00  0.00000000E+00
  0.00000000E+00  0.00000000E+00  0.00000000E+00
  0.00000000E+00  0.00000000E+00  0.00000000E+00
  0.00000000E+00  0.00000000E+00  0.00000000E+00
  0.00000000E+00  0.00000000E+00  0.00000000E+00
  0.00000000E+00  0.00000000E+00  0.00000000E+00
  0.00000000E+00  0.00000000E+00  0.00000000E+00
  0.00000000E+00  0.00000000E+00  0.00000000E+00
  0.00000000E+00  0.00000000E+00  0.00000000E+00
  0.00000000E+00  0.00000000E+00  0.00000000E+00
  0.00000000E+00  0.00000000E+00  0.00000000E+00
  0.00000000E+00  0.00000000E+00  0.00000000E+00
  0.00000000E+00  0.00000000E+00  0.00000000E+00
  0.00000000E+00  0.00000000E+00  0.00000000E+00
  0.00000000E+00  0.00000000E+00  0.00000000E+00
  0.00000000E+00  0.00000000E+00  0.00000000E+00
  0.00000000E+00  0.00000000E+00  0.00000000E+00
  0.00000000E+00  0.00000000E+00  0.00000000E+00
  0.00000000E+00  0.00000000E+00  0.00000000E+00
  0.00000000E+00  0.00000000E+00  0.00000000E+00
  0.00000000E+00  0.00000000E+00  0.00000000E+00
  0.00000000E+00  0.00000000E+00  0.00000000E+00
  0.00000000E+00  0.00000000E+00  0.00000000E+00
  0.00000000E+00  0.00000000E+00  0.00000000E+00
  0.00000000E+00  0.00000000E+00  0.00000000E+00
  0.00000000E+00  0.00000000E+00  0.00000000E+00
  0.00000000E+00  0.00000000E+00  0.00000000E+00
  0.00000000E+00  0.00000000E+00  0.00000000E+00
  0.00000000E+00  0.00000000E+00  0.00000000E+00
  0.00000000E+00  0.00000000E+00  0.00000000E+00
  0.00000000E+00  0.00000000E+00  0.00000000E+00
  0.00000000E+00  0.00000000E+00  0.00000000E+00
  0.00000000E+00  0.00000000E+00  0.00000000E+00
  0.00000000E+00  0.00000000E+00  0.00000000E+00
  0.00000000E+00  0.00000000E+00  0.00000000E+00
  0.00000000E+00  0.00000000E+00  0.00000000E+00
  0.00000000E+00  0.00000000E+00  0.00000000E+00
  0.00000000E+00  0.00000000E+00  0.00000000E+00
  0.00000000E+00  0.00000000E+00  0.00000000E+00
  0.00000000E+00  0.00000000E+00  0.00000000E+00
  0.00000000E+00  0.00000000E+00  0.00000000E+00
  0.00000000E+00  0.00000000E+00  0.00000000E+00
  0.00000000E+00  0.00000000E+00  0.00000000E+00
  0.00000000E+00  0.00000000E+00  0.00000000E+00
  0.00000000E+00  0.00000000E+00  0.00000000E+00
  0.00000000E+00  0.00000000E+00  0.00000000E+00
  0.00000000E+00  0.00000000E+00  0.00000000E+00
  0.00000000E+00  0.00000000E+00  0.00000000E+00
  0.00000000E+00  0.00000000E+00  0.00000000E+00
  0.00000000E+00  0.00000000E+00  0.00000000E+00
  0.00000000E+00  0.00000000E+00  0.00000000E+00
  0.00000000E+00  0.00000000E+00  0.00000000E+00
  0.00000000E+00  0.00000000E+00  0.00000000E+00
  0.00000000E+00  0.00000000E+00  0.00000000E+00
  0.00000000E+00  0.00000000E+00  0.00000000E+00
  0.00000000E+00  0.00000000E+00  0.00000000E+00
  0.00000000E+00  0.00000000E+00  0.00000000E+00
  0.00000000E+00  0.00000000E+00  0.00000000E+00
  0.00000000E+00  0.00000000E+00  0.00000000E+00
  0.00000000E+00  0.00000000E+00  0.00000000E+00
  0.00000000E+00  0.00000000E+00  0.00000000E+00
  0.00000000E+00  0.00000000E+00  0.00000000E+00
  0.00000000E+00  0.00000000E+00  0.00000000E+00
  0.00000000E+00  0.00000000E+00  0.00000000E+00
  0.00000000E+00  0.00000000E+00  0.00000000E+00
  0.00000000E+00  0.00000000E+00  0.00000000E+00
  0.00000000E+00  0.00000000E+00  0.00000000E+00
  0.00000000E+00  0.00000000E+00  0.00000000E+00
  0.00000000E+00  0.00000000E+00  0.00000000E+00
  0.00000000E+00  0.00000000E+00  0.00000000E+00
  0.00000000E+00  0.00000000E+00  0.00000000E+00
  0.00000000E+00  0.00000000E+00  0.00000000E+00
  0.00000000E+00  0.00000000E+00  0.00000000E+00
