O  Pd
 1.0000000000000000
     6.1071854184242751    0.0000000000000000    0.0000000000000004
     0.0000000000000017   10.8116922467861709    0.0000000000000007
     0.0000000000000000    0.0000000000000000   30.6875744822424821
 O   Pd 
  32  32
Selective dynamics
Cartesian
  3.0535927092121380  6.7573076542413570 12.1875744822424785   T   T   T
  0.0000000000000015  9.4602307159379002  3.0267963546060690   F   F   F
  3.0535927092121380  4.0543845925448139  3.0267963546060686   F   F   F
  3.0535927092121389  9.4602307159379002  3.0267963546060690   F   F   F
  0.0000000000000002  1.3514615308482714  3.0267963546060677   F   F   F
  0.0000000000000011  6.7573076542413570  3.0267963546060686   F   F   F
  3.0535927092121371  1.3514615308482714  3.0267963546060681   F   F   F
  3.0535927092121380  6.7573076542413570  3.0267963546060686   F   F   F
  0.0000000000000007  4.0543845925448139  6.0803890638182061   T   T   T
  0.0000000000000015  9.4602307159379002  6.0803890638182061   T   T   T
  3.0535927092121380  4.0543845925448139  6.0803890638182061   T   T   T
  3.0535927092121389  9.4602307159379002  6.0803890638182079   T   T   T
  0.0000000000000002  1.3514615308482714  6.0803890638182061   T   T   T
  0.0000000000000011  6.7573076542413570  6.0803890638182061   T   T   T
  3.0535927092121371  1.3514615308482714  6.0803890638182061   T   T   T
  3.0535927092121380  6.7573076542413570  6.0803890638182079   T   T   T
  0.0000000000000007  4.0543845925448139  9.1339817730303441   T   T   T
  0.0000000000000015  9.4602307159379002  9.1339817730303441   T   T   T
  3.0535927092121380  4.0543845925448139  9.1339817730303441   T   T   T
  3.0535927092121389  9.4602307159379002  9.1339817730303441   T   T   T
  0.0000000000000002  1.3514615308482714  9.1339817730303441   T   T   T
  0.0000000000000011  6.7573076542413570  9.1339817730303441   T   T   T
  3.0535927092121371  1.3514615308482714  9.1339817730303441   T   T   T
  3.0535927092121380  6.7573076542413570  9.1339817730303441   T   T   T
  0.0000000000000007  4.0543845925448139 12.1875744822424803   T   T   T
  0.0000000000000015  9.4602307159379002 12.1875744822424803   T   T   T
  3.0535927092121380  4.0543845925448139 12.1875744822424803   T   T   T
  3.0535927092121389  9.4602307159379002 12.1875744822424803   T   T   T
  0.0000000000000002  1.3514615308482714 12.1875744822424767   T   T   T
  0.0000000000000011  6.7573076542413570 12.1875744822424785   T   T   T
  0.0000000000000007  4.0543845925448139  3.0267963546060686   F   F   F
  3.0535927092121371  1.3514615308482714 12.1875744822424767   T   T   T
  0.0000000000000004  2.7029230616965427  1.5000000000000000   F   F   F
  1.5267963546060688  0.0000000000000000 12.1875744822424803   T   T   T
  0.0000000000000013  8.1087691850896277  1.5000000000000004   F   F   F
  3.0535927092121380  2.7029230616965427  1.5000000000000004   F   F   F
  3.0535927092121389  8.1087691850896277  1.5000000000000007   F   F   F
  1.5267963546060697  5.4058461233930855  3.0267963546060686   F   F   F
  1.5267963546060688  0.0000000000000000  3.0267963546060686   F   F   F
  4.5803890638182070  5.4058461233930855  3.0267963546060686   F   F   F
  4.5803890638182052  0.0000000000000000  3.0267963546060681   F   F   F
  0.0000000000000004  2.7029230616965427  4.5535927092121380   F   F   F
  0.0000000000000013  8.1087691850896277  4.5535927092121380   F   F   F
  3.0535927092121380  2.7029230616965427  4.5535927092121380   F   F   F
  3.0535927092121389  8.1087691850896277  4.5535927092121380   F   F   F
  1.5267963546060688  0.0000000000000000  6.0803890638182061   T   T   T
  1.5267963546060697  5.4058461233930855  6.0803890638182061   T   T   T
  4.5803890638182070  5.4058461233930855 12.1875744822424821   T   T   T
  4.5803890638182061  0.0000000000000000  6.0803890638182061   T   T   T
  0.0000000000000004  2.7029230616965427  7.6071854184242760   T   T   T
  0.0000000000000013  8.1087691850896277  7.6071854184242760   T   T   T
  3.0535927092121380  2.7029230616965427  7.6071854184242760   T   T   T
  3.0535927092121389  8.1087691850896277  7.6071854184242760   T   T   T
  1.5267963546060688  0.0000000000000000  9.1339817730303441   T   T   T
  1.5267963546060697  5.4058461233930855  9.1339817730303441   T   T   T
  4.5803890638182061  0.0000000000000000  9.1339817730303441   T   T   T
  4.5803890638182070  5.4058461233930855  9.1339817730303441   T   T   T
  0.0000000000000004  2.7029230616965427 10.6607781276364122   T   T   T
  0.0000000000000013  8.1087691850896277 10.6607781276364122   T   T   T
  3.0535927092121380  2.7029230616965427 10.6607781276364122   T   T   T
  3.0535927092121389  8.1087691850896277 10.6607781276364122   T   T   T
  1.5267963546060697  5.4058461233930855 12.1875744822424821   T   T   T
  4.5803890638182070  5.4058461233930855  6.0803890638182079   T   T   T
  4.5803890638182052  0.0000000000000000 12.1875744822424821   T   T   T
