O  Pd                                   
    1.000000000000000     
    12.2143708368485502    0.0000000000000000    0.0000000000000007
     0.0000000000000017   10.8116922467861709    0.0000000000000007
     0.0000000000000000    0.0000000000000000   30.6875744822424821
   O    Pd
    64    64
Selective dynamics
Direct
  0.2500164796846565  0.6192845907110464  0.3948836748677784   T   T   T
  0.4999952867096421  0.1192579933693713  0.3948846258957182   T   T   T
  0.4999800424000237  0.3807290061100429  0.3948822827623374   T   T   T
  0.4999985648171334  0.1252911601910456  0.2984679024735196   T   T   T
  0.4999981754585612  0.3747073254964675  0.2984672604990168   T   T   T
  0.5000014969241953  0.1254383805290830  0.1990464519805913   T   T   T
  0.4999995996358325  0.3745604051183088  0.1990472297158613   T   T   T
  0.5000000000000000  0.1250000000000000  0.0986326357059468   F   F   F
  0.5000000000000000  0.3750000000000000  0.0986326357059468   F   F   F
  0.7499946769368628  0.8807331951230430  0.3948838157211547   T   T   T
  0.2500075200514179  0.8807341018404378  0.3948852593091143   T   T   T
  0.2499997090125158  0.6252928738403327  0.2984684988166179   T   T   T
  0.2500000702663978  0.8747120923117645  0.2984688121931753   T   T   T
  0.2500014960353131  0.6254388601269310  0.1990476772128477   T   T   T
  0.2500006596830548  0.8745623769804802  0.1990472601030027   T   T   T
  0.2500000000000000  0.6250000000000000  0.0986326357059468   F   F   F
  0.2500000000000000  0.8750000000000000  0.0986326357059468   F   F   F
  0.2500076754411634  0.1192591516997786  0.3948877529842236   T   T   T
  0.5000000000000000  0.8750000000000000  0.0986326357059468   F   F   F
  0.5000000000000000  0.6250000000000000  0.0986326357059468   F   F   F
  0.5000011323692903  0.8745593417524934  0.1990471005653860   T   T   T
  0.4999998231165733  0.6254393756146275  0.1990475399450084   T   T   T
  0.7500006107016008  0.6252902735207166  0.2984698559727189   T   T   T
  0.7500000151505617  0.8747154888760093  0.2984694542060499   T   T   T
  0.7499987231643269  0.6254406503695625  0.1990476262582232   T   T   T
  0.7499995955299598  0.8745572402059231  0.1990470019705944   T   T   T
  0.7500000000000000  0.6250000000000000  0.0986326357059468   F   F   F
  0.7500000000000000  0.8750000000000000  0.0986326357059468   F   F   F
  0.7499932389316427  0.1192640081175219  0.3948827068377702   T   T   T
  0.7499879736851275  0.3807363321922157  0.3948810494761864   T   T   T
  0.2500123080150434  0.3807199532882212  0.3948853657017665   T   T   T
  0.7499954853321499  0.1252886399925335  0.2984673359374940   T   T   T
  0.7499996716892541  0.1254390723895336  0.1990464968236361   T   T   T
  0.7499990078401825  0.3745605737013834  0.1990471735305769   T   T   T
  0.7500000000000000  0.1250000000000000  0.0986326357059468   F   F   F
  0.7500000000000000  0.3750000000000000  0.0986326357059468   F   F   F
  0.4999859310524410  0.6192608770451962  0.3948849571928185   T   T   T
  0.4999967630919614  0.8807414120430923  0.3948861615550711   T   T   T
  0.4999968455803432  0.6252941963771673  0.2984693187011377   T   T   T
  0.4999981225895833  0.8747124477496200  0.2984682904991901   T   T   T
  0.7499952966819334  0.3747121126367808  0.2984661096563421   T   T   T
  0.2499997478165651  0.1252843875310446  0.2984690816856425   T   T   T
  0.7499850528407466  0.6192477595210901  0.3948837439241606   T   T   T
  0.0000037379356903  0.8807466627997232  0.3948832484903103   T   T   T
  0.0000000000000000  0.6250000000000000  0.0986326357059468   F   F   F
  0.2500003064331872  0.3747039568916180  0.2984703849440857   T   T   T
  0.9999992494042894  0.1192493308932002  0.3948839055128440   T   T   T
  0.9999990757643742  0.8745600780802805  0.1990469060199307   T   T   T
  0.0000193698869258  0.3807523661042997  0.3948829811068098   T   T   T
  0.0000003189884371  0.6254390893489407  0.1990473655633282   T   T   T
  0.0000015286271816  0.8747129754913432  0.2984672158798474   T   T   T
  0.0000015838687340  0.1252863022980545  0.2984680674509982   T   T   T
  0.0000035656906536  0.6252895795595717  0.2984671547201040   T   T   T
  0.0000025800271178  0.3747093568601527  0.2984685916497557   T   T   T
  0.0000151728713299  0.6192536113496219  0.3948812705391274   T   T   T
  0.9999989866423132  0.1254398211827306  0.1990473275570063   T   T   T
  0.0000005602472751  0.3745608154191127  0.1990477627332390   T   T   T
  0.2500000000000000  0.3750000000000000  0.0986326357059468   F   F   F
  0.0000000000000000  0.8750000000000000  0.0986326357059468   F   F   F
  0.2500013615643915  0.3745608566707497  0.1990482851347291   T   T   T
  0.2500000000000000  0.1250000000000000  0.0986326357059468   F   F   F
  0.2500005693932893  0.1254381685889822  0.1990478964223275   T   T   T
  0.0000000000000000  0.3750000000000000  0.0986326357059468   F   F   F
  0.0000000000000000  0.1250000000000000  0.0986326357059468   F   F   F
  0.6250546664408654  0.5000171314706714  0.3903369066596813   T   T   T
  0.8750068659041991  0.5000059893503117  0.3903368044993572   T   T   T
  0.0000000000000000  0.7500000000000000  0.0488797184302712   F   F   F
  0.7500044165054353  0.7500043243035237  0.3503133811401561   T   T   T
  0.1250000000000000  0.0000000000000000  0.0986326357059468   F   F   F
  0.7500000000000000  0.2500000000000000  0.0488797184302712   F   F   F
  0.8750000000000000  0.0000000000000000  0.0986326357059468   F   F   F
  0.8750026427118508  0.5000002637782376  0.2974724130015152   T   T   T
  0.1249616620771519  0.9999927264669378  0.3903367668745140   T   T   T
  0.7500003153632107  0.2499990274566139  0.1487794648086352   T   T   T
  0.8750023341714663  0.0000004573527908  0.1994656428137084   T   T   T
  0.7500003521747624  0.7500001732453563  0.1487799584730693   T   T   T
  0.1250033441458186  0.0000010584917884  0.1994658008234589   T   T   T
  0.7500012999466881  0.7499989651171645  0.2493237199949709   T   T   T
  0.7500004045883327  0.2500025326374922  0.2493239628189707   T   T   T
  0.8750049314913230  0.9999993632751113  0.2974724119680043   T   T   T
  0.9999999702409035  0.2499995864055657  0.1487794104252735   T   T   T
  0.1249937944257550  0.0000007142224390  0.2974726234041409   T   T   T
  0.7500027620747154  0.2499964308572468  0.3503167983289610   T   T   T
  0.5000035467127262  0.7499983421533818  0.3503102909461153   T   T   T
  0.8750230431293092  0.0000062807991350  0.3903357856801353   T   T   T
  0.0000002767048883  0.2499997462233748  0.2493241135945889   T   T   T
  0.8750014113946961  0.4999995943207822  0.1994652428242677   T   T   T
  0.7500000000000000  0.7500000000000000  0.0488797184302712   F   F   F
  0.8750000000000000  0.5000000000000000  0.0986326357059468   F   F   F
  0.9999953827633642  0.2500006093669301  0.3503137669237383   T   T   T
  0.3749932839944974  0.9999992804702938  0.2974728142483647   T   T   T
  0.6250014847614598  0.4999982358708406  0.1994652233760962   T   T   T
  0.6250102822426684  0.5000041613901450  0.2974728778616501   T   T   T
  0.3750268821061085  0.5000008181639168  0.3903376582911135   T   T   T
  0.2499951350475723  0.7499977314618267  0.3503134157757978   T   T   T
  0.3750000000000000  0.0000000000000000  0.0986326357059468   F   F   F
  0.3749986548823653  0.5000004825928582  0.2974729278425352   T   T   T
  0.2499989114457626  0.7499987226115588  0.2493233603746816   T   T   T
  0.2499999404683893  0.2500000532587058  0.1487800802944340   T   T   T
  0.2500000000000000  0.2500000000000000  0.0488797184302712   F   F   F
  0.3749987831722451  0.4999997370405986  0.1994656694023936   T   T   T
  0.3749969328065024  0.0000003640363557  0.1994657728978113   T   T   T
  0.3750000000000000  0.5000000000000000  0.0986326357059468   F   F   F
  0.2500000000000000  0.7500000000000000  0.0488797184302712   F   F   F
  0.2499993130834921  0.2499998813387693  0.2493235679288794   T   T   T
  0.3750049056636911  0.0000019944537253  0.3903370860723072   T   T   T
  0.2499967558503669  0.2500093124514376  0.3503098496531166   T   T   T
  0.2499998845267982  0.7500002805337941  0.1487801254809949   T   T   T
  0.5000000000000000  0.2500000000000000  0.0488797184302712   F   F   F
  0.6250000000000000  0.0000000000000000  0.0986326357059468   F   F   F
  0.1249116791401299  0.4999913118822423  0.3903377499217164   T   T   T
  0.4999994486622529  0.7500009091240636  0.2493237551967895   T   T   T
  0.9999999809161504  0.7500010583228079  0.1487797474889323   T   T   T
  0.5000001413174561  0.7500002263842647  0.1487805702362424   T   T   T
  0.1249989458178197  0.5000010454980823  0.1994654697795598   T   T   T
  0.6250000000000000  0.5000000000000000  0.0986326357059468   F   F   F
  0.5000000000000000  0.7500000000000000  0.0488797184302712   F   F   F
  0.0000008958943164  0.7499993399770013  0.2493243554164169   T   T   T
  0.6250091543747603  0.0000147934398809  0.3903357523440427   T   T   T
  0.5000051427454135  0.2500018103902364  0.3503132260530427   T   T   T
  0.1249881423443286  0.4999968871217231  0.2974727306813662   T   T   T
  0.6250076828694350  0.9999977083024797  0.2974726564148918   T   T   T
  0.4999999767544075  0.2500026753630060  0.2493236749040428   T   T   T
  0.9999970516197783  0.7499985925414581  0.3503162286130471   T   T   T
  0.6249978188754609  0.9999997085666469  0.1994656436817180   T   T   T
  0.5000001411895089  0.2499995707631154  0.1487803779200828   T   T   T
  0.1250000000000000  0.5000000000000000  0.0986326357059468   F   F   F
  0.0000000000000000  0.2500000000000000  0.0488797184302712   F   F   F
 
  0.00000000E+00  0.00000000E+00  0.00000000E+00
  0.00000000E+00  0.00000000E+00  0.00000000E+00
  0.00000000E+00  0.00000000E+00  0.00000000E+00
  0.00000000E+00  0.00000000E+00  0.00000000E+00
  0.00000000E+00  0.00000000E+00  0.00000000E+00
  0.00000000E+00  0.00000000E+00  0.00000000E+00
  0.00000000E+00  0.00000000E+00  0.00000000E+00
  0.00000000E+00  0.00000000E+00  0.00000000E+00
  0.00000000E+00  0.00000000E+00  0.00000000E+00
  0.00000000E+00  0.00000000E+00  0.00000000E+00
  0.00000000E+00  0.00000000E+00  0.00000000E+00
  0.00000000E+00  0.00000000E+00  0.00000000E+00
  0.00000000E+00  0.00000000E+00  0.00000000E+00
  0.00000000E+00  0.00000000E+00  0.00000000E+00
  0.00000000E+00  0.00000000E+00  0.00000000E+00
  0.00000000E+00  0.00000000E+00  0.00000000E+00
  0.00000000E+00  0.00000000E+00  0.00000000E+00
  0.00000000E+00  0.00000000E+00  0.00000000E+00
  0.00000000E+00  0.00000000E+00  0.00000000E+00
  0.00000000E+00  0.00000000E+00  0.00000000E+00
  0.00000000E+00  0.00000000E+00  0.00000000E+00
  0.00000000E+00  0.00000000E+00  0.00000000E+00
  0.00000000E+00  0.00000000E+00  0.00000000E+00
  0.00000000E+00  0.00000000E+00  0.00000000E+00
  0.00000000E+00  0.00000000E+00  0.00000000E+00
  0.00000000E+00  0.00000000E+00  0.00000000E+00
  0.00000000E+00  0.00000000E+00  0.00000000E+00
  0.00000000E+00  0.00000000E+00  0.00000000E+00
  0.00000000E+00  0.00000000E+00  0.00000000E+00
  0.00000000E+00  0.00000000E+00  0.00000000E+00
  0.00000000E+00  0.00000000E+00  0.00000000E+00
  0.00000000E+00  0.00000000E+00  0.00000000E+00
  0.00000000E+00  0.00000000E+00  0.00000000E+00
  0.00000000E+00  0.00000000E+00  0.00000000E+00
  0.00000000E+00  0.00000000E+00  0.00000000E+00
  0.00000000E+00  0.00000000E+00  0.00000000E+00
  0.00000000E+00  0.00000000E+00  0.00000000E+00
  0.00000000E+00  0.00000000E+00  0.00000000E+00
  0.00000000E+00  0.00000000E+00  0.00000000E+00
  0.00000000E+00  0.00000000E+00  0.00000000E+00
  0.00000000E+00  0.00000000E+00  0.00000000E+00
  0.00000000E+00  0.00000000E+00  0.00000000E+00
  0.00000000E+00  0.00000000E+00  0.00000000E+00
  0.00000000E+00  0.00000000E+00  0.00000000E+00
  0.00000000E+00  0.00000000E+00  0.00000000E+00
  0.00000000E+00  0.00000000E+00  0.00000000E+00
  0.00000000E+00  0.00000000E+00  0.00000000E+00
  0.00000000E+00  0.00000000E+00  0.00000000E+00
  0.00000000E+00  0.00000000E+00  0.00000000E+00
  0.00000000E+00  0.00000000E+00  0.00000000E+00
  0.00000000E+00  0.00000000E+00  0.00000000E+00
  0.00000000E+00  0.00000000E+00  0.00000000E+00
  0.00000000E+00  0.00000000E+00  0.00000000E+00
  0.00000000E+00  0.00000000E+00  0.00000000E+00
  0.00000000E+00  0.00000000E+00  0.00000000E+00
  0.00000000E+00  0.00000000E+00  0.00000000E+00
  0.00000000E+00  0.00000000E+00  0.00000000E+00
  0.00000000E+00  0.00000000E+00  0.00000000E+00
  0.00000000E+00  0.00000000E+00  0.00000000E+00
  0.00000000E+00  0.00000000E+00  0.00000000E+00
  0.00000000E+00  0.00000000E+00  0.00000000E+00
  0.00000000E+00  0.00000000E+00  0.00000000E+00
  0.00000000E+00  0.00000000E+00  0.00000000E+00
  0.00000000E+00  0.00000000E+00  0.00000000E+00
  0.00000000E+00  0.00000000E+00  0.00000000E+00
  0.00000000E+00  0.00000000E+00  0.00000000E+00
  0.00000000E+00  0.00000000E+00  0.00000000E+00
  0.00000000E+00  0.00000000E+00  0.00000000E+00
  0.00000000E+00  0.00000000E+00  0.00000000E+00
  0.00000000E+00  0.00000000E+00  0.00000000E+00
  0.00000000E+00  0.00000000E+00  0.00000000E+00
  0.00000000E+00  0.00000000E+00  0.00000000E+00
  0.00000000E+00  0.00000000E+00  0.00000000E+00
  0.00000000E+00  0.00000000E+00  0.00000000E+00
  0.00000000E+00  0.00000000E+00  0.00000000E+00
  0.00000000E+00  0.00000000E+00  0.00000000E+00
  0.00000000E+00  0.00000000E+00  0.00000000E+00
  0.00000000E+00  0.00000000E+00  0.00000000E+00
  0.00000000E+00  0.00000000E+00  0.00000000E+00
  0.00000000E+00  0.00000000E+00  0.00000000E+00
  0.00000000E+00  0.00000000E+00  0.00000000E+00
  0.00000000E+00  0.00000000E+00  0.00000000E+00
  0.00000000E+00  0.00000000E+00  0.00000000E+00
  0.00000000E+00  0.00000000E+00  0.00000000E+00
  0.00000000E+00  0.00000000E+00  0.00000000E+00
  0.00000000E+00  0.00000000E+00  0.00000000E+00
  0.00000000E+00  0.00000000E+00  0.00000000E+00
  0.00000000E+00  0.00000000E+00  0.00000000E+00
  0.00000000E+00  0.00000000E+00  0.00000000E+00
  0.00000000E+00  0.00000000E+00  0.00000000E+00
  0.00000000E+00  0.00000000E+00  0.00000000E+00
  0.00000000E+00  0.00000000E+00  0.00000000E+00
  0.00000000E+00  0.00000000E+00  0.00000000E+00
  0.00000000E+00  0.00000000E+00  0.00000000E+00
  0.00000000E+00  0.00000000E+00  0.00000000E+00
  0.00000000E+00  0.00000000E+00  0.00000000E+00
  0.00000000E+00  0.00000000E+00  0.00000000E+00
  0.00000000E+00  0.00000000E+00  0.00000000E+00
  0.00000000E+00  0.00000000E+00  0.00000000E+00
  0.00000000E+00  0.00000000E+00  0.00000000E+00
  0.00000000E+00  0.00000000E+00  0.00000000E+00
  0.00000000E+00  0.00000000E+00  0.00000000E+00
  0.00000000E+00  0.00000000E+00  0.00000000E+00
  0.00000000E+00  0.00000000E+00  0.00000000E+00
  0.00000000E+00  0.00000000E+00  0.00000000E+00
  0.00000000E+00  0.00000000E+00  0.00000000E+00
  0.00000000E+00  0.00000000E+00  0.00000000E+00
  0.00000000E+00  0.00000000E+00  0.00000000E+00
  0.00000000E+00  0.00000000E+00  0.00000000E+00
  0.00000000E+00  0.00000000E+00  0.00000000E+00
  0.00000000E+00  0.00000000E+00  0.00000000E+00
  0.00000000E+00  0.00000000E+00  0.00000000E+00
  0.00000000E+00  0.00000000E+00  0.00000000E+00
  0.00000000E+00  0.00000000E+00  0.00000000E+00
  0.00000000E+00  0.00000000E+00  0.00000000E+00
  0.00000000E+00  0.00000000E+00  0.00000000E+00
  0.00000000E+00  0.00000000E+00  0.00000000E+00
  0.00000000E+00  0.00000000E+00  0.00000000E+00
  0.00000000E+00  0.00000000E+00  0.00000000E+00
  0.00000000E+00  0.00000000E+00  0.00000000E+00
  0.00000000E+00  0.00000000E+00  0.00000000E+00
  0.00000000E+00  0.00000000E+00  0.00000000E+00
  0.00000000E+00  0.00000000E+00  0.00000000E+00
  0.00000000E+00  0.00000000E+00  0.00000000E+00
  0.00000000E+00  0.00000000E+00  0.00000000E+00
  0.00000000E+00  0.00000000E+00  0.00000000E+00
  0.00000000E+00  0.00000000E+00  0.00000000E+00
  0.00000000E+00  0.00000000E+00  0.00000000E+00
