C  H  O  Pd
 1.0000000000000000
    12.2143708368485502    0.0000000000000000    0.0000000000000007
     0.0000000000000017   10.8116922467861709    0.0000000000000007
     0.0000000000000000    0.0000000000000000   30.6875744822424821
 C   H   O   Pd 
   2   3  66  64
Selective dynamics
Direct
  0.3752466857208751  0.3771488398582080  0.4797375860020348   T   T   T
  0.3955929247117039 -0.0078020821880990  0.4730688592822261   T   T   T
  0.4490603564206155  0.3213014168489663  0.4721507322376657   T   T   T
  0.3747354087568970  0.3983694768089512  0.5151966905603811   T   T   T
  0.3009483018768134  0.3226773763109295  0.4716289373260137   T   T   T
  0.0000001489023768  0.6253641828117400  0.1990385236877962   F   F   F
  1.0017661282665729  0.3795110607549955  0.3962980806059692   T   T   T
  0.0000007785774361  0.8746366631057728  0.1990387117510663   F   F   F
  0.0023477598034115  0.1207572433961556  0.3961620993732498   T   T   T
  0.2508575307386050  0.3743062158181358  0.2992046831249914   T   T   T
  0.0000000000000000  0.6250000000000000  0.0986326357059468   F   F   F
  0.7520148189804650  0.6211381153164143  0.3962700580837493   T   T   T
  0.0005359932765667  0.8747614587400462  0.2986293562771372   T   T   T
  0.2508770795939755  0.1245825768840619  0.2986813983328173   T   T   T
  0.7513206151872901  0.3747759770362128  0.2986311492813133   T   T   T
  0.5008443117738326  0.8744894151861188  0.2987201017734782   T   T   T
  0.5010304313277225  0.6244070800691547  0.2990155378698902   T   T   T
  1.0017799580064788  0.8796979692125488  0.3963253755129820   T   T   T
  0.0010975127817782  0.1254252359494402  0.2985978684347158   T   T   T
  1.0011208519370995  0.3749101244667027  0.2986179832866033   T   T   T
  0.5028686785584853  0.8773161830294336  0.3961412304087015   T   T   T
  1.0019776432143215  0.6213801872415757  0.3965338943442552   T   T   T
  0.0000003667133454  0.1253639748692094  0.1990386316366852   F   F   F
  0.0000002712633380  0.3746360819220366  0.1990386009744299   F   F   F
  0.2500000000000000  0.3750000000000000  0.0986326357059468   F   F   F
 -0.0000000000000000  0.8750000000000001  0.0986326357059468   F   F   F
  0.2499998638177366  0.3746354513558036  0.1990391137478614   F   F   F
  0.2500000000000000  0.1250000000000000  0.0986326357059468   F   F   F
  0.2500003118916107  0.1253643742758414  0.1990388468832426   F   F   F
  0.0000000000000000  0.3750000000000000  0.0986326357059468   F   F   F
  0.0000000000000000  0.1250000000000000  0.0986326357059468   F   F   F
  0.4775990401414517 -0.0281854481533439  0.4901893331540205   T   T   T
  0.3768678451349580  0.4954828717388728  0.4600837684536008   T   T   T
  0.0011230016786201  0.6254382655394154  0.2987445895204418   T   T   T
  0.5032438970634322  0.6207257820237525  0.3963327784046425   T   T   T
  0.2509073691285747  0.6209358286952092  0.3965964182477398   T   T   T
  0.7500000000000000  0.1250000000000000  0.0986326357059468   F   F   F
  0.2500000725690806  0.8746359244060554  0.1990388968624472   F   F   F
  0.2500000575081164  0.6253646356490544  0.1990388586176256   F   F   F
  0.2507616480950359  0.8743975649931677  0.2988942347217391   T   T   T
  0.2512669909674809  0.6247737589580029  0.2992256456026610   T   T   T
  0.2512265640129597  0.8771254335599863  0.3968468713276291   T   T   T
  0.7523094318613425  0.8795332491315836  0.3962512099618324   T   T   T
  0.2500000000000000  0.6250000000000000  0.0986326357059468   F   F   F
  0.5000000000000000  0.3750000000000000  0.0986326357059468   F   F   F
  0.5024175153431969  0.1208461331803515  0.3965805222952197   T   T   T
  0.5040637489680624  0.3774911740013406  0.3960790120745104   T   T   T
  0.5005459529055761  0.1244883585518954  0.2985740954269068   T   T   T
  0.5012277886939535  0.3742130301426928  0.2991592429672669   T   T   T
  0.4999998368048840  0.1253637532206347  0.1990388322615649   F   F   F
  0.7500000000000000  0.3750000000000000  0.0986326357059468   F   F   F
  0.5000000000000000  0.1250000000000000  0.0986326357059468   F   F   F
  0.2500000000000000  0.8750000000000001  0.0986326357059468   F   F   F
  0.4999999938080711  0.3746360868658646  0.1990385922315757   F   F   F
  0.5000000000000000  0.8750000000000001  0.0986326357059468   F   F   F
  0.2515920359748843  0.1212459818267590  0.3968312975842818   T   T   T
  0.7500000114023815  0.1253633646095497  0.1990386859845709   F   F   F
  0.7500004982174803  0.3746360905691121  0.1990382815073973   F   F   F
  0.2498359647812964  0.3777354378185344  0.3961293000300437   T   T   T
  0.7524693280811557  0.3794168015671362  0.3963022721652267   T   T   T
  0.7516994941322176  0.1207430086258115  0.3963119893210866   T   T   T
  0.7500000000000000  0.8750000000000001  0.0986326357059468   F   F   F
  0.7506493498651885  0.1254090291026121  0.2986086574534876   T   T   T
  0.7500002014178647  0.8746343896298040  0.1990386967425212   F   F   F
  0.7500002133337712  0.6253633161861426  0.1990388060063935   F   F   F
  0.7511061206918296  0.8749087208657094  0.2985510398233072   T   T   T
  0.7510873914047416  0.6252782840344093  0.2986243592817259   T   T   T
  0.5000001784867202  0.6253637522044813  0.1990389446145577   F   F   F
  0.4999995794704318  0.8746354974934157  0.1990386872989469   F   F   F
  0.7500000000000000  0.6250000000000000  0.0986326357059468   F   F   F
  0.5000000000000000  0.6250000000000000  0.0986326357059468   F   F   F
  0.0000000644614895  0.7499997055339565  0.1487767856559003   F   F   F
  0.5000133958543634  0.7496936468545788  0.2492839948171490   T   T   T
  0.1265279539130949  0.5003478347990827  0.3916389623561485   T   T   T
  0.6250000000000000  0.0000000000000000  0.0986326357059468   F   F   F
  0.3768236670870750 -0.0012020942593931  0.3928377070704160   T   T   T
  0.2500002436688700  0.7499998371993483  0.1487767841964014   F   F   F
  0.2508904388989814  0.2487516756602493  0.3505978818139556   T   T   T
  0.2508130948077795  0.2499163180338997  0.2493197769034650   T   T   T
  0.2500000000000000  0.7500000000000000  0.0488797184302712   F   F   F
  0.3750000000000000  0.5000000000000000  0.0986326357059468   F   F   F
  0.5000000000000000  0.2500000000000000  0.0488797184302712   F   F   F
  0.5000000890861059  0.7499991063848873  0.1487764921061197   F   F   F
  0.6259107104905032 -0.0002228250558134  0.2976897811864241   T   T   T
  0.6250000000000000  0.5000000000000000  0.0986326357059468   F   F   F
  0.5000000000000000  0.7500000000000000  0.0488797184302712   F   F   F
  0.0004069838586908  0.7499751954355198  0.2492581931548206   T   T   T
  0.6271024864746890  0.9995298686924350  0.3914206829668082   T   T   T
  0.5019101783880208  0.2486809262958051  0.3504437949421808   T   T   T
  0.1259926150744862  0.4999450602625983  0.2980436302746889   T   T   T
  0.4999880257524300  0.2498807765172880  0.2492717338081470   T   T   T
  1.0011949146661723  0.7503241696071667  0.3507416079010337   T   T   T
  0.6250011512513076  0.9999984342009582  0.1993176556340738   F   F   F
  0.5000000412290440  0.2500002002978380  0.1487764123606149   F   F   F
  0.1250000000000000  0.5000000000000000  0.0986326357059468   F   F   F
  0.0000000000000000  0.2500000000000000  0.0488797184302712   F   F   F
  0.3750013085010481  0.9999996425241101  0.1993178715196733   F   F   F
  0.1250005006673170  0.4999996619028680  0.1993179793341455   F   F   F
  0.3750004864510694  0.5000000253507203  0.1993181014519463   F   F   F
  0.0007040462828557  0.2500932021996917  0.2492224703491318   T   T   T
  0.2500001827845806  0.2500004790494265  0.1487770501254799   F   F   F
  0.7503794821396874  0.2500591731146232  0.2492310758218115   T   T   T
  0.7505525232661377  0.7500046611481000  0.2492132396760418   T   T   T
  0.1249992154568337  0.0000000621413549  0.1993179005561505   F   F   F
  0.7499999695802716  0.7499987873488344  0.1487766346932499   F   F   F
  0.8749990435797278  0.9999988729247118  0.1993176942245059   F   F   F
  0.7500000714258059  0.2500001333654533  0.1487767298788664   F   F   F
  0.8758250637300231  0.0003538178964161  0.2975892089519309   T   T   T
  0.1274691326208042 -0.0004133844291967  0.3917290658410462   T   T   T
  0.8750000000000000  0.0000000000000000  0.0986326357059468   F   F   F
  0.7500000000000000  0.2500000000000000  0.0488797184302712   F   F   F
  0.1250000000000000  0.0000000000000000  0.0986326357059468   F   F   F
  0.0000000000000000  0.7500000000000000  0.0488797184302712   F   F   F
  0.8771077929571338  0.5006246022886225  0.3915030700803368   T   T   T
  0.6275374267361107  0.4999674221022213  0.3914687461779662   T   T   T
  0.8761902321821907  0.5001958834098352  0.2977072251782527   T   T   T
  0.2500000000000000  0.2500000000000000  0.0488797184302712   F   F   F
  0.0000001104490266  0.2500003692293262  0.1487770372582357   F   F   F
  0.7517668472203136  0.2501164997039801  0.3506589248601396   T   T   T
  0.2509293414351530  0.7497326725477228  0.2493810791077894   T   T   T
  0.3760635834567081  0.4992946830141818  0.2995759473488261   T   T   T
  0.3750000000000000  0.0000000000000000  0.0986326357059468   F   F   F
  0.2513110764940100  0.7493826906670608  0.3507873058127442   T   T   T
  0.3770139535667687  0.4985551932926984  0.3949304458202821   T   T   T
  0.6263437219489473  0.4996225548948107  0.2979339653021489   T   T   T
  0.1256675019102000  0.9996790660059396  0.2978212350397000   T   T   T
  0.6249997369785575  0.5000005243672183  0.1993177510521300   F   F   F
  1.0015959177704798  0.2502293860239444  0.3505995675642055   T   T   T
  0.8750000000000000  0.5000000000000000  0.0986326357059468   F   F   F
  0.7500000000000000  0.7500000000000000  0.0488797184302712   F   F   F
  0.8749998623887097  0.5000001886345932  0.1993177285951360   F   F   F
  0.8771204658715431  1.0004410869440561  0.3912993781377009   T   T   T
  0.5018256171435447  0.7490374230603681  0.3503994721953755   T   T   T
  0.3757153953722253 -0.0006369182252620  0.2981062869900363   T   T   T
  0.7518772053540621  0.7503105976757305  0.3505765949206505   T   T   T
Cartesian
  0.0000000000000000  0.0000000000000000  0.0000000000000000
  0.0000000000000000  0.0000000000000000  0.0000000000000000
  0.0000000000000000  0.0000000000000000  0.0000000000000000
  0.0000000000000000  0.0000000000000000  0.0000000000000000
  0.0000000000000000  0.0000000000000000  0.0000000000000000
  0.0000000000000000  0.0000000000000000  0.0000000000000000
  0.0000000000000000  0.0000000000000000  0.0000000000000000
  0.0000000000000000  0.0000000000000000  0.0000000000000000
  0.0000000000000000  0.0000000000000000  0.0000000000000000
  0.0000000000000000  0.0000000000000000  0.0000000000000000
  0.0000000000000000  0.0000000000000000  0.0000000000000000
  0.0000000000000000  0.0000000000000000  0.0000000000000000
  0.0000000000000000  0.0000000000000000  0.0000000000000000
  0.0000000000000000  0.0000000000000000  0.0000000000000000
  0.0000000000000000  0.0000000000000000  0.0000000000000000
  0.0000000000000000  0.0000000000000000  0.0000000000000000
  0.0000000000000000  0.0000000000000000  0.0000000000000000
  0.0000000000000000  0.0000000000000000  0.0000000000000000
  0.0000000000000000  0.0000000000000000  0.0000000000000000
  0.0000000000000000  0.0000000000000000  0.0000000000000000
  0.0000000000000000  0.0000000000000000  0.0000000000000000
  0.0000000000000000  0.0000000000000000  0.0000000000000000
  0.0000000000000000  0.0000000000000000  0.0000000000000000
  0.0000000000000000  0.0000000000000000  0.0000000000000000
  0.0000000000000000  0.0000000000000000  0.0000000000000000
  0.0000000000000000  0.0000000000000000  0.0000000000000000
  0.0000000000000000  0.0000000000000000  0.0000000000000000
  0.0000000000000000  0.0000000000000000  0.0000000000000000
  0.0000000000000000  0.0000000000000000  0.0000000000000000
  0.0000000000000000  0.0000000000000000  0.0000000000000000
  0.0000000000000000  0.0000000000000000  0.0000000000000000
  0.0000000000000000  0.0000000000000000  0.0000000000000000
  0.0000000000000000  0.0000000000000000  0.0000000000000000
  0.0000000000000000  0.0000000000000000  0.0000000000000000
  0.0000000000000000  0.0000000000000000  0.0000000000000000
  0.0000000000000000  0.0000000000000000  0.0000000000000000
  0.0000000000000000  0.0000000000000000  0.0000000000000000
  0.0000000000000000  0.0000000000000000  0.0000000000000000
  0.0000000000000000  0.0000000000000000  0.0000000000000000
  0.0000000000000000  0.0000000000000000  0.0000000000000000
  0.0000000000000000  0.0000000000000000  0.0000000000000000
  0.0000000000000000  0.0000000000000000  0.0000000000000000
  0.0000000000000000  0.0000000000000000  0.0000000000000000
  0.0000000000000000  0.0000000000000000  0.0000000000000000
  0.0000000000000000  0.0000000000000000  0.0000000000000000
  0.0000000000000000  0.0000000000000000  0.0000000000000000
  0.0000000000000000  0.0000000000000000  0.0000000000000000
  0.0000000000000000  0.0000000000000000  0.0000000000000000
  0.0000000000000000  0.0000000000000000  0.0000000000000000
  0.0000000000000000  0.0000000000000000  0.0000000000000000
  0.0000000000000000  0.0000000000000000  0.0000000000000000
  0.0000000000000000  0.0000000000000000  0.0000000000000000
  0.0000000000000000  0.0000000000000000  0.0000000000000000
  0.0000000000000000  0.0000000000000000  0.0000000000000000
  0.0000000000000000  0.0000000000000000  0.0000000000000000
  0.0000000000000000  0.0000000000000000  0.0000000000000000
  0.0000000000000000  0.0000000000000000  0.0000000000000000
  0.0000000000000000  0.0000000000000000  0.0000000000000000
  0.0000000000000000  0.0000000000000000  0.0000000000000000
  0.0000000000000000  0.0000000000000000  0.0000000000000000
  0.0000000000000000  0.0000000000000000  0.0000000000000000
  0.0000000000000000  0.0000000000000000  0.0000000000000000
  0.0000000000000000  0.0000000000000000  0.0000000000000000
  0.0000000000000000  0.0000000000000000  0.0000000000000000
  0.0000000000000000  0.0000000000000000  0.0000000000000000
  0.0000000000000000  0.0000000000000000  0.0000000000000000
  0.0000000000000000  0.0000000000000000  0.0000000000000000
  0.0000000000000000  0.0000000000000000  0.0000000000000000
  0.0000000000000000  0.0000000000000000  0.0000000000000000
  0.0000000000000000  0.0000000000000000  0.0000000000000000
  0.0000000000000000  0.0000000000000000  0.0000000000000000
  0.0000000000000000  0.0000000000000000  0.0000000000000000
  0.0000000000000000  0.0000000000000000  0.0000000000000000
  0.0000000000000000  0.0000000000000000  0.0000000000000000
  0.0000000000000000  0.0000000000000000  0.0000000000000000
  0.0000000000000000  0.0000000000000000  0.0000000000000000
  0.0000000000000000  0.0000000000000000  0.0000000000000000
  0.0000000000000000  0.0000000000000000  0.0000000000000000
  0.0000000000000000  0.0000000000000000  0.0000000000000000
  0.0000000000000000  0.0000000000000000  0.0000000000000000
  0.0000000000000000  0.0000000000000000  0.0000000000000000
  0.0000000000000000  0.0000000000000000  0.0000000000000000
  0.0000000000000000  0.0000000000000000  0.0000000000000000
  0.0000000000000000  0.0000000000000000  0.0000000000000000
  0.0000000000000000  0.0000000000000000  0.0000000000000000
  0.0000000000000000  0.0000000000000000  0.0000000000000000
  0.0000000000000000  0.0000000000000000  0.0000000000000000
  0.0000000000000000  0.0000000000000000  0.0000000000000000
  0.0000000000000000  0.0000000000000000  0.0000000000000000
  0.0000000000000000  0.0000000000000000  0.0000000000000000
  0.0000000000000000  0.0000000000000000  0.0000000000000000
  0.0000000000000000  0.0000000000000000  0.0000000000000000
  0.0000000000000000  0.0000000000000000  0.0000000000000000
  0.0000000000000000  0.0000000000000000  0.0000000000000000
  0.0000000000000000  0.0000000000000000  0.0000000000000000
  0.0000000000000000  0.0000000000000000  0.0000000000000000
  0.0000000000000000  0.0000000000000000  0.0000000000000000
  0.0000000000000000  0.0000000000000000  0.0000000000000000
  0.0000000000000000  0.0000000000000000  0.0000000000000000
  0.0000000000000000  0.0000000000000000  0.0000000000000000
  0.0000000000000000  0.0000000000000000  0.0000000000000000
  0.0000000000000000  0.0000000000000000  0.0000000000000000
  0.0000000000000000  0.0000000000000000  0.0000000000000000
  0.0000000000000000  0.0000000000000000  0.0000000000000000
  0.0000000000000000  0.0000000000000000  0.0000000000000000
  0.0000000000000000  0.0000000000000000  0.0000000000000000
  0.0000000000000000  0.0000000000000000  0.0000000000000000
  0.0000000000000000  0.0000000000000000  0.0000000000000000
  0.0000000000000000  0.0000000000000000  0.0000000000000000
  0.0000000000000000  0.0000000000000000  0.0000000000000000
  0.0000000000000000  0.0000000000000000  0.0000000000000000
  0.0000000000000000  0.0000000000000000  0.0000000000000000
  0.0000000000000000  0.0000000000000000  0.0000000000000000
  0.0000000000000000  0.0000000000000000  0.0000000000000000
  0.0000000000000000  0.0000000000000000  0.0000000000000000
  0.0000000000000000  0.0000000000000000  0.0000000000000000
  0.0000000000000000  0.0000000000000000  0.0000000000000000
  0.0000000000000000  0.0000000000000000  0.0000000000000000
  0.0000000000000000  0.0000000000000000  0.0000000000000000
  0.0000000000000000  0.0000000000000000  0.0000000000000000
  0.0000000000000000  0.0000000000000000  0.0000000000000000
  0.0000000000000000  0.0000000000000000  0.0000000000000000
  0.0000000000000000  0.0000000000000000  0.0000000000000000
  0.0000000000000000  0.0000000000000000  0.0000000000000000
  0.0000000000000000  0.0000000000000000  0.0000000000000000
  0.0000000000000000  0.0000000000000000  0.0000000000000000
  0.0000000000000000  0.0000000000000000  0.0000000000000000
  0.0000000000000000  0.0000000000000000  0.0000000000000000
  0.0000000000000000  0.0000000000000000  0.0000000000000000
  0.0000000000000000  0.0000000000000000  0.0000000000000000
  0.0000000000000000  0.0000000000000000  0.0000000000000000
  0.0000000000000000  0.0000000000000000  0.0000000000000000
  0.0000000000000000  0.0000000000000000  0.0000000000000000
  0.0000000000000000  0.0000000000000000  0.0000000000000000
  0.0000000000000000  0.0000000000000000  0.0000000000000000
