Pd                                      
    1.000000000000000     
     3.9173015749846063    0.0000000000000000    0.0000000000000002
     0.0000000000000006    3.9173015749846063    0.0000000000000002
     0.0000000000000000    0.0000000000000000    3.9173015749846063
   Pd
     4
Direct
  0.0000000000000000  0.0000000000000000  0.0000000000000000
  0.0000000000000000  0.5000000000000000  0.5000000000000000
  0.5000000000000000  0.0000000000000000  0.5000000000000000
  0.5000000000000000  0.5000000000000000  0.0000000000000000
 
  0.00000000E+00  0.00000000E+00  0.00000000E+00
  0.00000000E+00  0.00000000E+00  0.00000000E+00
  0.00000000E+00  0.00000000E+00  0.00000000E+00
  0.00000000E+00  0.00000000E+00  0.00000000E+00
