C  O  Pd
 1.0000000000000000
    11.0046904376558210    0.0000000000000000    0.0000000000000000
     0.0000000000000000   11.0046904376558210    0.0000000000000000
     0.0000000000000000    0.0000000000000000   27.7814912333251840
 C   O   Pd 
   1   1  80
Selective dynamics
Direct
 -0.0355513489654540  0.2080255577519100  0.4045170905076659   T   T   T
 -0.0534267935305589  0.1872056403827982  0.4451285907073615   T   T   T
  0.5000699636180211  0.7499923966282113  0.3386737624210002   T   T   T
  0.0000000000000000  0.5000000000000000  0.0539927820073487   F   F   F
  0.2500000000000000  0.0000000000000000  0.0539927820073487   F   F   F
  0.5000000000000000  0.0000000000000000  0.0539927820073487   F   F   F
  0.7500000000000000  0.0000000000000000  0.0539927820073487   F   F   F
  0.0000000000000000  0.2500000000000000  0.0539927820073487   F   F   F
  0.2500000000000000  0.2500000000000000  0.0539927820073487   F   F   F
  0.5000000000000000  0.2500000000000000  0.0539927820073487   F   F   F
  0.6250000000000001  0.1250000000000000  0.1240168419828507   F   F   F
  0.7500000000000000  0.2500000000000000  0.0539927820073487   F   F   F
  0.3750000000000000  0.1250000000000000  0.1240168419828507   F   F   F
  0.5000000000000000  0.5000000000000000  0.0539927820073487   F   F   F
  0.7500000000000000  0.5000000000000000  0.0539927820073487   F   F   F
  0.0000000000000000  0.7500000000000000  0.0539927820073487   F   F   F
  0.2500000000000000  0.7500000000000000  0.0539927820073487   F   F   F
  0.5000000000000000  0.7500000000000000  0.0539927820073487   F   F   F
  0.7500000000000000  0.7500000000000000  0.0539927820073487   F   F   F
  0.2500000000000000  0.5000000000000000  0.0539927820073487   F   F   F
  0.7497692030084113  0.7501930252078345  0.3386735685594072   T   T   T
  0.8750000000000000  0.1250000000000000  0.1240168419828507   F   F   F
  0.2491703098419288  0.2502395727193714  0.1957180654151666   T   T   T
  0.3750000000000000  0.3750000000000000  0.1240168419828507   F   F   F
  0.6250000000000001  0.3750000000000000  0.1240168419828507   F   F   F
  0.8750000000000000  0.3750000000000000  0.1240168419828507   F   F   F
  0.1250000000000000  0.6250000000000001  0.1240168419828507   F   F   F
  0.3750000000000000  0.6250000000000001  0.1240168419828507   F   F   F
  0.6250000000000001  0.6250000000000001  0.1240168419828507   F   F   F
  0.8750000000000000  0.6250000000000001  0.1240168419828507   F   F   F
  0.1250000000000000  0.1250000000000000  0.1240168419828507   F   F   F
  0.1250000000000000  0.8750000000000000  0.1240168419828507   F   F   F
  0.6250000000000001  0.8750000000000000  0.1240168419828507   F   F   F
  0.8750000000000000  0.8750000000000000  0.1240168419828507   F   F   F
 -0.0000145193766171  0.0007166441181232  0.1955851427468818   T   T   T
  0.2499337581806622  0.0000285599994507  0.1953839770415892   F   F   F
  0.4998345103877412  0.0001126267255800  0.1954967867667184   F   F   F
  0.7498300692292627  0.0000694203334847  0.1953550867028489   F   F   F
 -0.0002035162532028  0.2502654894515912  0.1957392398363738   T   T   T
  0.3750000000000000  0.8750000000000000  0.1240168419828507   F   F   F
  0.1250000000000000  0.3750000000000000  0.1240168419828507   F   F   F
  0.0000000000000000  0.0000000000000000  0.0539927820073487   F   F   F
 -0.0000094953837266  0.4996185929365281  0.1957612298593732   T   T   T
  0.4997274964292119  0.4998626638078971  0.1955640372501284   T   T   T
  0.7498649511548364  0.5000953819604730  0.1954133355748442   F   F   F
  0.0000765880244614  0.7501903000233299  0.1955486046682724   F   F   F
  0.2498445040783891  0.7499701741287588  0.1955626959301966   T   T   T
  0.4999559659367782  0.7499915901427516  0.1955087998958537   F   F   F
  0.7500913849711973  0.7500788406976340  0.1954925784774462   F   F   F
  0.1243608478603584  0.1258985658417521  0.2677153126397737   T   T   T
  0.3744593489219011  0.1250552531043269  0.2669219332105227   T   T   T
  0.6252263772543134  0.1251018940914351  0.2669287121507130   T   T   T
  0.8749321809943967  0.1256690904670638  0.2674492346428005   T   T   T
  0.1231049749205351  0.3739010745817167  0.2684243939249162   T   T   T
  0.3740563493423216  0.3750897473127907  0.2670613000103876   T   T   T
  0.6253328137608838  0.3750595098826364  0.2670349284101625   T   T   T
  0.8753121708470704  0.3750037568394606  0.2677901094403396   T   T   T
  0.1249714617231762  0.6248891042866094  0.2670678960607208   T   T   T
  0.3748695190915777  0.6250471836433279  0.2669830123137221   T   T   T
  0.6248618850914013  0.6249573591171008  0.2669085549303087   T   T   T
  0.2497125958714171  0.4999473168870703  0.1955390474403933   F   F   F
  0.8749206510705002  0.6252686914472902  0.2669209272091214   T   T   T
  0.3748183819818513  0.8749973532652249  0.2669524011917447   T   T   T
  0.2530733364749059  0.2496873832374627  0.3390668325653275   T   T   T
  0.6248029958896009  0.8749882046235545  0.2668927799967531   T   T   T
  0.8750192433659070  0.8761392260838020  0.2669306987478894   T   T   T
 -0.0005260406077589 -0.0000911599811718  0.3394783938450548   T   T   T
  0.2505058977284333 -0.0002435241377318  0.3389800665023406   T   T   T
  0.4996609365524392 -0.0002215354578150  0.3387076170602482   T   T   T
  0.7488443643786160 -0.0006406403149147  0.3387890662792624   T   T   T
  0.0011260551254585  0.2530854854343481  0.3423615863446983   T   T   T
  0.5005055066152628  0.2500244686570085  0.3389124709203953   T   T   T
  0.1248542696048844  0.8762790257665959  0.2670443799928919   T   T   T
  0.7479828131762256  0.2499217015708218  0.3392396646239547   T   T   T
 -0.0006973779231456  0.5045915696480676  0.3390552285711865   T   T   T
  0.2499749937102734  0.5004411882848459  0.3391066934973750   T   T   T
  0.4996725617245377  0.5002000206438912  0.3387602647232539   T   T   T
  0.7493733403286397  0.5008729237583009  0.3389281883799493   T   T   T
  0.0000276723765161  0.7521464099419082  0.3388847846902719   T   T   T
  0.2501397216407576  0.7502021540979041  0.3387485102386991   T   T   T
  0.7502349278647072  0.2502311861955154  0.1956413024926407   T   T   T
  0.4996935220191612  0.2501291601783500  0.1955490236739476   T   T   T
Cartesian
  0.0000000000000000  0.0000000000000000  0.0000000000000000
  0.0000000000000000  0.0000000000000000  0.0000000000000000
  0.0000000000000000  0.0000000000000000  0.0000000000000000
  0.0000000000000000  0.0000000000000000  0.0000000000000000
  0.0000000000000000  0.0000000000000000  0.0000000000000000
  0.0000000000000000  0.0000000000000000  0.0000000000000000
  0.0000000000000000  0.0000000000000000  0.0000000000000000
  0.0000000000000000  0.0000000000000000  0.0000000000000000
  0.0000000000000000  0.0000000000000000  0.0000000000000000
  0.0000000000000000  0.0000000000000000  0.0000000000000000
  0.0000000000000000  0.0000000000000000  0.0000000000000000
  0.0000000000000000  0.0000000000000000  0.0000000000000000
  0.0000000000000000  0.0000000000000000  0.0000000000000000
  0.0000000000000000  0.0000000000000000  0.0000000000000000
  0.0000000000000000  0.0000000000000000  0.0000000000000000
  0.0000000000000000  0.0000000000000000  0.0000000000000000
  0.0000000000000000  0.0000000000000000  0.0000000000000000
  0.0000000000000000  0.0000000000000000  0.0000000000000000
  0.0000000000000000  0.0000000000000000  0.0000000000000000
  0.0000000000000000  0.0000000000000000  0.0000000000000000
  0.0000000000000000  0.0000000000000000  0.0000000000000000
  0.0000000000000000  0.0000000000000000  0.0000000000000000
  0.0000000000000000  0.0000000000000000  0.0000000000000000
  0.0000000000000000  0.0000000000000000  0.0000000000000000
  0.0000000000000000  0.0000000000000000  0.0000000000000000
  0.0000000000000000  0.0000000000000000  0.0000000000000000
  0.0000000000000000  0.0000000000000000  0.0000000000000000
  0.0000000000000000  0.0000000000000000  0.0000000000000000
  0.0000000000000000  0.0000000000000000  0.0000000000000000
  0.0000000000000000  0.0000000000000000  0.0000000000000000
  0.0000000000000000  0.0000000000000000  0.0000000000000000
  0.0000000000000000  0.0000000000000000  0.0000000000000000
  0.0000000000000000  0.0000000000000000  0.0000000000000000
  0.0000000000000000  0.0000000000000000  0.0000000000000000
  0.0000000000000000  0.0000000000000000  0.0000000000000000
  0.0000000000000000  0.0000000000000000  0.0000000000000000
  0.0000000000000000  0.0000000000000000  0.0000000000000000
  0.0000000000000000  0.0000000000000000  0.0000000000000000
  0.0000000000000000  0.0000000000000000  0.0000000000000000
  0.0000000000000000  0.0000000000000000  0.0000000000000000
  0.0000000000000000  0.0000000000000000  0.0000000000000000
  0.0000000000000000  0.0000000000000000  0.0000000000000000
  0.0000000000000000  0.0000000000000000  0.0000000000000000
  0.0000000000000000  0.0000000000000000  0.0000000000000000
  0.0000000000000000  0.0000000000000000  0.0000000000000000
  0.0000000000000000  0.0000000000000000  0.0000000000000000
  0.0000000000000000  0.0000000000000000  0.0000000000000000
  0.0000000000000000  0.0000000000000000  0.0000000000000000
  0.0000000000000000  0.0000000000000000  0.0000000000000000
  0.0000000000000000  0.0000000000000000  0.0000000000000000
  0.0000000000000000  0.0000000000000000  0.0000000000000000
  0.0000000000000000  0.0000000000000000  0.0000000000000000
  0.0000000000000000  0.0000000000000000  0.0000000000000000
  0.0000000000000000  0.0000000000000000  0.0000000000000000
  0.0000000000000000  0.0000000000000000  0.0000000000000000
  0.0000000000000000  0.0000000000000000  0.0000000000000000
  0.0000000000000000  0.0000000000000000  0.0000000000000000
  0.0000000000000000  0.0000000000000000  0.0000000000000000
  0.0000000000000000  0.0000000000000000  0.0000000000000000
  0.0000000000000000  0.0000000000000000  0.0000000000000000
  0.0000000000000000  0.0000000000000000  0.0000000000000000
  0.0000000000000000  0.0000000000000000  0.0000000000000000
  0.0000000000000000  0.0000000000000000  0.0000000000000000
  0.0000000000000000  0.0000000000000000  0.0000000000000000
  0.0000000000000000  0.0000000000000000  0.0000000000000000
  0.0000000000000000  0.0000000000000000  0.0000000000000000
  0.0000000000000000  0.0000000000000000  0.0000000000000000
  0.0000000000000000  0.0000000000000000  0.0000000000000000
  0.0000000000000000  0.0000000000000000  0.0000000000000000
  0.0000000000000000  0.0000000000000000  0.0000000000000000
  0.0000000000000000  0.0000000000000000  0.0000000000000000
  0.0000000000000000  0.0000000000000000  0.0000000000000000
  0.0000000000000000  0.0000000000000000  0.0000000000000000
  0.0000000000000000  0.0000000000000000  0.0000000000000000
  0.0000000000000000  0.0000000000000000  0.0000000000000000
  0.0000000000000000  0.0000000000000000  0.0000000000000000
  0.0000000000000000  0.0000000000000000  0.0000000000000000
  0.0000000000000000  0.0000000000000000  0.0000000000000000
  0.0000000000000000  0.0000000000000000  0.0000000000000000
  0.0000000000000000  0.0000000000000000  0.0000000000000000
  0.0000000000000000  0.0000000000000000  0.0000000000000000
  0.0000000000000000  0.0000000000000000  0.0000000000000000
