C  O  Pd
 1.0000000000000000
    11.0046904376558210    0.0000000000000000    0.0000000000000000
     0.0000000000000000   11.0046904376558210    0.0000000000000000
     0.0000000000000000    0.0000000000000000   27.7814912333251840
 C   O   Pd 
   1   1  80
Selective dynamics
Direct
 -0.0168430330603660  0.2699825047472589  0.4079711793228259   T   T   T
 -0.0262773862302414  0.2826549350765514  0.4494719302301779   T   T   T
  0.4999540605348035  0.7500123275397197  0.3388857384314744   T   T   T
  0.0000000000000000  0.5000000000000000  0.0539927820073487   F   F   F
  0.2500000000000000  0.0000000000000000  0.0539927820073487   F   F   F
  0.5000000000000000  0.0000000000000000  0.0539927820073487   F   F   F
  0.7500000000000000  0.0000000000000000  0.0539927820073487   F   F   F
  0.0000000000000000  0.2500000000000000  0.0539927820073487   F   F   F
  0.2500000000000000  0.2500000000000000  0.0539927820073487   F   F   F
  0.5000000000000000  0.2500000000000000  0.0539927820073487   F   F   F
  0.6250000000000001  0.1250000000000000  0.1240168419828507   F   F   F
  0.7500000000000000  0.2500000000000000  0.0539927820073487   F   F   F
  0.3750000000000000  0.1250000000000000  0.1240168419828507   F   F   F
  0.5000000000000000  0.5000000000000000  0.0539927820073487   F   F   F
  0.7500000000000000  0.5000000000000000  0.0539927820073487   F   F   F
  0.0000000000000000  0.7500000000000000  0.0539927820073487   F   F   F
  0.2500000000000000  0.7500000000000000  0.0539927820073487   F   F   F
  0.5000000000000000  0.7500000000000000  0.0539927820073487   F   F   F
  0.7500000000000000  0.7500000000000000  0.0539927820073487   F   F   F
  0.2500000000000000  0.5000000000000000  0.0539927820073487   F   F   F
  0.7499519260159327  0.7504371120526627  0.3387851597550485   T   T   T
  0.8750000000000000  0.1250000000000000  0.1240168419828507   F   F   F
  0.2494337565939919  0.2499644551528312  0.1955740296630556   T   T   T
  0.3750000000000000  0.3750000000000000  0.1240168419828507   F   F   F
  0.6250000000000001  0.3750000000000000  0.1240168419828507   F   F   F
  0.8750000000000000  0.3750000000000000  0.1240168419828507   F   F   F
  0.1250000000000000  0.6250000000000001  0.1240168419828507   F   F   F
  0.3750000000000000  0.6250000000000001  0.1240168419828507   F   F   F
  0.6250000000000001  0.6250000000000001  0.1240168419828507   F   F   F
  0.8750000000000000  0.6250000000000001  0.1240168419828507   F   F   F
  0.1250000000000000  0.1250000000000000  0.1240168419828507   F   F   F
  0.1250000000000000  0.8750000000000000  0.1240168419828507   F   F   F
  0.6250000000000001  0.8750000000000000  0.1240168419828507   F   F   F
  0.8750000000000000  0.8750000000000000  0.1240168419828507   F   F   F
  0.0000732111921925  0.0006937521819078  0.1955418445409569   T   T   T
  0.2499150393405702  0.0001630794386238  0.1954026146067898   F   F   F
  0.4999512401922898  0.0001045740405485  0.1955203761721069   T   T   T
  0.7500011421848048  0.0000256823302293  0.1953257540194845   F   F   F
  0.0000264985371317  0.2500548522087356  0.1953323097003712   F   F   F
  0.3750000000000000  0.8750000000000000  0.1240168419828507   F   F   F
  0.1250000000000000  0.3750000000000000  0.1240168419828507   F   F   F
  0.0000000000000000  0.0000000000000000  0.0539927820073487   F   F   F
  0.0000058623636357  0.4995976915507186  0.1955713630765762   T   T   T
  0.4999192215728503  0.5000393042384459  0.1954916158466068   T   T   T
  0.7498298673200000  0.5001763846929986  0.1952776047830966   F   F   F
  0.0000148038240180  0.7501096756382868  0.1954707106834604   F   F   F
  0.2499890237206389  0.7501816503469106  0.1954776148276691   F   F   F
  0.4999746239605252  0.7500232980894354  0.1955042858641723   T   T   T
  0.7499381983694455  0.7501696080891610  0.1954586688293287   F   F   F
  0.1235025313563922  0.1266462353129549  0.2678787259685617   T   T   T
  0.3745852753628200  0.1250153913785202  0.2668693175945051   T   T   T
  0.6255611301129894  0.1250382329282509  0.2668649176284755   T   T   T
  0.8761069912337922  0.1261280697852697  0.2675584828943787   T   T   T
  0.1242442072554624  0.3742239756920103  0.2674749898619057   T   T   T
  0.3748515930855454  0.3751683272712913  0.2668661449724061   T   T   T
  0.6252449670269414  0.3751368161453754  0.2668669121099108   T   T   T
  0.8755159543580648  0.3745080896219548  0.2672848363826354   T   T   T
  0.1250855296902494  0.6249682421056668  0.2668836357123987   T   T   T
  0.3749875602085118  0.6252654088634275  0.2670002387019403   T   T   T
  0.6248436255777488  0.6252415607600227  0.2670013350014409   T   T   T
  0.2500638074160853  0.5000994171797570  0.1953203383391135   F   F   F
  0.8748312826487895  0.6250691765610704  0.2668348032032453   T   T   T
  0.3749892868684797  0.8750700364525730  0.2669883372243368   T   T   T
  0.2533261180323543  0.2503788487118003  0.3387736993939823   T   T   T
  0.6248870492061228  0.8750610023850292  0.2669858528389787   T   T   T
  0.8749431708948919  0.8754839111757423  0.2668155906317980   T   T   T
 -0.0002332683339971 -0.0029294907304993  0.3388003401213583   T   T   T
  0.2501034724708927  0.0001099683324769  0.3388289742860934   T   T   T
  0.4999311147390100  0.0001084272070517  0.3386840644015051   T   T   T
  0.7497521120043307 -0.0001156579814628  0.3387829793387374   T   T   T
  0.0008430712944540  0.2494061943704357  0.3427431724648382   T   T   T
  0.5006023252769958  0.2498777260305270  0.3387081844339028   T   T   T
  0.1250201047398436  0.8756335822150312  0.2668554186877070   T   T   T
  0.7478447011420425  0.2503019082661105  0.3388146809728619   T   T   T
 -0.0002401019590969  0.5023211945234640  0.3386484024799044   T   T   T
  0.2502921063658128  0.5004798718770864  0.3387381780996401   T   T   T
  0.4998836662391534  0.5000515454360540  0.3387763226100095   T   T   T
  0.7494820480181081  0.5006705506208489  0.3386944312641205   T   T   T
  0.0000039997920067  0.7497857865213915  0.3387228169063877   T   T   T
  0.2499430709546553  0.7504622420674393  0.3388014410402084   T   T   T
  0.7505146116140243  0.2500035621189379  0.1954996413062214   T   T   T
  0.4999862499825081  0.2500340603002053  0.1955147748453608   T   T   T
Cartesian
  0.0000000000000000  0.0000000000000000  0.0000000000000000
  0.0000000000000000  0.0000000000000000  0.0000000000000000
  0.0000000000000000  0.0000000000000000  0.0000000000000000
  0.0000000000000000  0.0000000000000000  0.0000000000000000
  0.0000000000000000  0.0000000000000000  0.0000000000000000
  0.0000000000000000  0.0000000000000000  0.0000000000000000
  0.0000000000000000  0.0000000000000000  0.0000000000000000
  0.0000000000000000  0.0000000000000000  0.0000000000000000
  0.0000000000000000  0.0000000000000000  0.0000000000000000
  0.0000000000000000  0.0000000000000000  0.0000000000000000
  0.0000000000000000  0.0000000000000000  0.0000000000000000
  0.0000000000000000  0.0000000000000000  0.0000000000000000
  0.0000000000000000  0.0000000000000000  0.0000000000000000
  0.0000000000000000  0.0000000000000000  0.0000000000000000
  0.0000000000000000  0.0000000000000000  0.0000000000000000
  0.0000000000000000  0.0000000000000000  0.0000000000000000
  0.0000000000000000  0.0000000000000000  0.0000000000000000
  0.0000000000000000  0.0000000000000000  0.0000000000000000
  0.0000000000000000  0.0000000000000000  0.0000000000000000
  0.0000000000000000  0.0000000000000000  0.0000000000000000
  0.0000000000000000  0.0000000000000000  0.0000000000000000
  0.0000000000000000  0.0000000000000000  0.0000000000000000
  0.0000000000000000  0.0000000000000000  0.0000000000000000
  0.0000000000000000  0.0000000000000000  0.0000000000000000
  0.0000000000000000  0.0000000000000000  0.0000000000000000
  0.0000000000000000  0.0000000000000000  0.0000000000000000
  0.0000000000000000  0.0000000000000000  0.0000000000000000
  0.0000000000000000  0.0000000000000000  0.0000000000000000
  0.0000000000000000  0.0000000000000000  0.0000000000000000
  0.0000000000000000  0.0000000000000000  0.0000000000000000
  0.0000000000000000  0.0000000000000000  0.0000000000000000
  0.0000000000000000  0.0000000000000000  0.0000000000000000
  0.0000000000000000  0.0000000000000000  0.0000000000000000
  0.0000000000000000  0.0000000000000000  0.0000000000000000
  0.0000000000000000  0.0000000000000000  0.0000000000000000
  0.0000000000000000  0.0000000000000000  0.0000000000000000
  0.0000000000000000  0.0000000000000000  0.0000000000000000
  0.0000000000000000  0.0000000000000000  0.0000000000000000
  0.0000000000000000  0.0000000000000000  0.0000000000000000
  0.0000000000000000  0.0000000000000000  0.0000000000000000
  0.0000000000000000  0.0000000000000000  0.0000000000000000
  0.0000000000000000  0.0000000000000000  0.0000000000000000
  0.0000000000000000  0.0000000000000000  0.0000000000000000
  0.0000000000000000  0.0000000000000000  0.0000000000000000
  0.0000000000000000  0.0000000000000000  0.0000000000000000
  0.0000000000000000  0.0000000000000000  0.0000000000000000
  0.0000000000000000  0.0000000000000000  0.0000000000000000
  0.0000000000000000  0.0000000000000000  0.0000000000000000
  0.0000000000000000  0.0000000000000000  0.0000000000000000
  0.0000000000000000  0.0000000000000000  0.0000000000000000
  0.0000000000000000  0.0000000000000000  0.0000000000000000
  0.0000000000000000  0.0000000000000000  0.0000000000000000
  0.0000000000000000  0.0000000000000000  0.0000000000000000
  0.0000000000000000  0.0000000000000000  0.0000000000000000
  0.0000000000000000  0.0000000000000000  0.0000000000000000
  0.0000000000000000  0.0000000000000000  0.0000000000000000
  0.0000000000000000  0.0000000000000000  0.0000000000000000
  0.0000000000000000  0.0000000000000000  0.0000000000000000
  0.0000000000000000  0.0000000000000000  0.0000000000000000
  0.0000000000000000  0.0000000000000000  0.0000000000000000
  0.0000000000000000  0.0000000000000000  0.0000000000000000
  0.0000000000000000  0.0000000000000000  0.0000000000000000
  0.0000000000000000  0.0000000000000000  0.0000000000000000
  0.0000000000000000  0.0000000000000000  0.0000000000000000
  0.0000000000000000  0.0000000000000000  0.0000000000000000
  0.0000000000000000  0.0000000000000000  0.0000000000000000
  0.0000000000000000  0.0000000000000000  0.0000000000000000
  0.0000000000000000  0.0000000000000000  0.0000000000000000
  0.0000000000000000  0.0000000000000000  0.0000000000000000
  0.0000000000000000  0.0000000000000000  0.0000000000000000
  0.0000000000000000  0.0000000000000000  0.0000000000000000
  0.0000000000000000  0.0000000000000000  0.0000000000000000
  0.0000000000000000  0.0000000000000000  0.0000000000000000
  0.0000000000000000  0.0000000000000000  0.0000000000000000
  0.0000000000000000  0.0000000000000000  0.0000000000000000
  0.0000000000000000  0.0000000000000000  0.0000000000000000
  0.0000000000000000  0.0000000000000000  0.0000000000000000
  0.0000000000000000  0.0000000000000000  0.0000000000000000
  0.0000000000000000  0.0000000000000000  0.0000000000000000
  0.0000000000000000  0.0000000000000000  0.0000000000000000
  0.0000000000000000  0.0000000000000000  0.0000000000000000
  0.0000000000000000  0.0000000000000000  0.0000000000000000
