C  O  Pd                                
    1.000000000000000     
    11.0046904376558210    0.0000000000000000    0.0000000000000000
     0.0000000000000000   11.0046904376558210    0.0000000000000000
     0.0000000000000000    0.0000000000000000   27.7814912333251840
   C    O    Pd
     1     1    80
Selective dynamics
Direct
  0.3740612739965802  0.2303595362382176  0.3897937996286596   T   T   T
  0.3735141608257406  0.2160409509207540  0.4318974888167146   T   T   T
  0.5001462546756695  0.7494493129246560  0.3348410279530843   T   T   T
  0.0000000000000000  0.5000000000000000  0.0539927820073487   F   F   F
  0.2500000000000000  0.0000000000000000  0.0539927820073487   F   F   F
  0.5000000000000000  0.0000000000000000  0.0539927820073487   F   F   F
  0.7500000000000000  0.0000000000000000  0.0539927820073487   F   F   F
  0.0000000000000000  0.2500000000000000  0.0539927820073487   F   F   F
  0.2500000000000000  0.2500000000000000  0.0539927820073487   F   F   F
  0.5000000000000000  0.2500000000000000  0.0539927820073487   F   F   F
  0.6250000000000000  0.1250000000000000  0.1240168419828507   F   F   F
  0.7500000000000000  0.2500000000000000  0.0539927820073487   F   F   F
  0.3750000000000000  0.1250000000000000  0.1240168419828507   F   F   F
  0.5000000000000000  0.5000000000000000  0.0539927820073487   F   F   F
  0.7500000000000000  0.5000000000000000  0.0539927820073487   F   F   F
  0.0000000000000000  0.7500000000000000  0.0539927820073487   F   F   F
  0.2500000000000000  0.7500000000000000  0.0539927820073487   F   F   F
  0.5000000000000000  0.7500000000000000  0.0539927820073487   F   F   F
  0.7500000000000000  0.7500000000000000  0.0539927820073487   F   F   F
  0.2500000000000000  0.5000000000000000  0.0539927820073487   F   F   F
  0.7498096249215600  0.7498505459653603  0.3351911324281291   T   T   T
  0.8750000000000000  0.1250000000000000  0.1240168419828507   F   F   F
  0.2502574329132105  0.2497858939759521  0.1946521627899905   T   T   T
  0.3750000000000000  0.3750000000000000  0.1240168419828507   F   F   F
  0.6250000000000000  0.3750000000000000  0.1240168419828507   F   F   F
  0.8750000000000000  0.3750000000000000  0.1240168419828507   F   F   F
  0.1250000000000000  0.6250000000000000  0.1240168419828507   F   F   F
  0.3750000000000000  0.6250000000000000  0.1240168419828507   F   F   F
  0.6250000000000000  0.6250000000000000  0.1240168419828507   F   F   F
  0.8750000000000000  0.6250000000000000  0.1240168419828507   F   F   F
  0.1250000000000000  0.1250000000000000  0.1240168419828507   F   F   F
  0.1250000000000000  0.8750000000000000  0.1240168419828507   F   F   F
  0.6250000000000000  0.8750000000000000  0.1240168419828507   F   F   F
  0.8750000000000000  0.8750000000000000  0.1240168419828507   F   F   F
  0.9998035729854564  0.9998666955719315  0.1954113213616822   F   F   F
  0.2500266258041677  0.0003099522900030  0.1954973593222107   F   F   F
  0.5002808633295895  0.0002566450305087  0.1944836176881100   T   T   T
  0.7500348486693085  0.0000188568292216  0.1954355449340497   F   F   F
  0.0004118071280306  0.2500119285191758  0.1948008899981099   T   T   T
  0.3750000000000000  0.8750000000000000  0.1240168419828507   F   F   F
  0.1250000000000000  0.3750000000000000  0.1240168419828507   F   F   F
  0.0000000000000000  0.0000000000000000  0.0539927820073487   F   F   F
  0.9997256323727015  0.5000232163921723  0.1954346466210310   F   F   F
  0.5003558595053826  0.4994056775337482  0.1944295866418099   T   T   T
  0.7500360650308551  0.4998380799845492  0.1954534077984462   F   F   F
  0.0003063265308825  0.7499632517557231  0.1954604761839462   F   F   F
  0.2501639666968387  0.7499259238175355  0.1954292977247007   F   F   F
  0.5003383960780496  0.7498377606812809  0.1954857163006309   F   F   F
  0.7503278148726679  0.7498578578537511  0.1946006865702026   T   T   T
  0.1256140396683111  0.1258728353340021  0.2656057782429339   T   T   T
  0.3751372370478873  0.1252080303452525  0.2655920260706701   T   T   T
  0.6238259831248979  0.1256983479228151  0.2655157979448808   T   T   T
  0.8747788800041084  0.1252971868830772  0.2651501435694714   T   T   T
  0.1261606801925279  0.3737902060870450  0.2656188555870555   T   T   T
  0.3748345052582205  0.3746391458630192  0.2654171144150762   T   T   T
  0.6233458015468408  0.3736594396765270  0.2656806368301236   T   T   T
  0.8747939619292947  0.3745606270208811  0.2651841016902866   T   T   T
  0.1252591781856208  0.6239467787513312  0.2651105459802248   T   T   T
  0.3751172326392342  0.6239073061965323  0.2647270357882702   T   T   T
  0.6250974967444666  0.6241225999742891  0.2649768862236629   T   T   T
  0.2495569181180614  0.4994597406556108  0.1944226386204334   T   T   T
  0.8749000287727414  0.6250235569655660  0.2652117441007208   T   T   T
  0.3754071605342254  0.8749461398437276  0.2648594527834127   T   T   T
  0.2490017747439739  0.2494831926839466  0.3390795734523996   T   T   T
  0.6252245824450189  0.8753285605782809  0.2649502334848112   T   T   T
  0.8748658561168737  0.8748152314221970  0.2652088105349207   T   T   T
  0.9995561161548027  0.9998824258402301  0.3353427724887721   T   T   T
  0.2497091581931807  0.9975241010392600  0.3353320076277556   T   T   T
  0.5004966602050404  0.9974093911694115  0.3354174124974701   T   T   T
  0.7500980965283577  0.9997707449205877  0.3352745331526001   T   T   T
  0.9995270328415938  0.2499646616989568  0.3354645718662963   T   T   T
  0.5000492735232674  0.2493594285512072  0.3392991460549860   T   T   T
  0.1250242129698824  0.8753069739372613  0.2652338876605916   T   T   T
  0.7496142941429343  0.2498588228543507  0.3354693537991086   T   T   T
  0.9997005746030496  0.4998931645563529  0.3353038716113441   T   T   T
  0.2497397145309320  0.5013183570714037  0.3354889236175839   T   T   T
  0.5001425102281682  0.5013537873071087  0.3354783510368163   T   T   T
  0.7499828686018383  0.4999429425888611  0.3352586463591390   T   T   T
  0.0003668513107708  0.7498014408941054  0.3351449078360558   T   T   T
  0.2505397470336479  0.7494113221236074  0.3349197943893781   T   T   T
  0.7493333423904989  0.2500504709886776  0.1948023214425197   T   T   T
  0.4995148114742436  0.2498405164825572  0.1946180218472929   T   T   T
 
  0.00000000E+00  0.00000000E+00  0.00000000E+00
  0.00000000E+00  0.00000000E+00  0.00000000E+00
  0.00000000E+00  0.00000000E+00  0.00000000E+00
  0.00000000E+00  0.00000000E+00  0.00000000E+00
  0.00000000E+00  0.00000000E+00  0.00000000E+00
  0.00000000E+00  0.00000000E+00  0.00000000E+00
  0.00000000E+00  0.00000000E+00  0.00000000E+00
  0.00000000E+00  0.00000000E+00  0.00000000E+00
  0.00000000E+00  0.00000000E+00  0.00000000E+00
  0.00000000E+00  0.00000000E+00  0.00000000E+00
  0.00000000E+00  0.00000000E+00  0.00000000E+00
  0.00000000E+00  0.00000000E+00  0.00000000E+00
  0.00000000E+00  0.00000000E+00  0.00000000E+00
  0.00000000E+00  0.00000000E+00  0.00000000E+00
  0.00000000E+00  0.00000000E+00  0.00000000E+00
  0.00000000E+00  0.00000000E+00  0.00000000E+00
  0.00000000E+00  0.00000000E+00  0.00000000E+00
  0.00000000E+00  0.00000000E+00  0.00000000E+00
  0.00000000E+00  0.00000000E+00  0.00000000E+00
  0.00000000E+00  0.00000000E+00  0.00000000E+00
  0.00000000E+00  0.00000000E+00  0.00000000E+00
  0.00000000E+00  0.00000000E+00  0.00000000E+00
  0.00000000E+00  0.00000000E+00  0.00000000E+00
  0.00000000E+00  0.00000000E+00  0.00000000E+00
  0.00000000E+00  0.00000000E+00  0.00000000E+00
  0.00000000E+00  0.00000000E+00  0.00000000E+00
  0.00000000E+00  0.00000000E+00  0.00000000E+00
  0.00000000E+00  0.00000000E+00  0.00000000E+00
  0.00000000E+00  0.00000000E+00  0.00000000E+00
  0.00000000E+00  0.00000000E+00  0.00000000E+00
  0.00000000E+00  0.00000000E+00  0.00000000E+00
  0.00000000E+00  0.00000000E+00  0.00000000E+00
  0.00000000E+00  0.00000000E+00  0.00000000E+00
  0.00000000E+00  0.00000000E+00  0.00000000E+00
  0.00000000E+00  0.00000000E+00  0.00000000E+00
  0.00000000E+00  0.00000000E+00  0.00000000E+00
  0.00000000E+00  0.00000000E+00  0.00000000E+00
  0.00000000E+00  0.00000000E+00  0.00000000E+00
  0.00000000E+00  0.00000000E+00  0.00000000E+00
  0.00000000E+00  0.00000000E+00  0.00000000E+00
  0.00000000E+00  0.00000000E+00  0.00000000E+00
  0.00000000E+00  0.00000000E+00  0.00000000E+00
  0.00000000E+00  0.00000000E+00  0.00000000E+00
  0.00000000E+00  0.00000000E+00  0.00000000E+00
  0.00000000E+00  0.00000000E+00  0.00000000E+00
  0.00000000E+00  0.00000000E+00  0.00000000E+00
  0.00000000E+00  0.00000000E+00  0.00000000E+00
  0.00000000E+00  0.00000000E+00  0.00000000E+00
  0.00000000E+00  0.00000000E+00  0.00000000E+00
  0.00000000E+00  0.00000000E+00  0.00000000E+00
  0.00000000E+00  0.00000000E+00  0.00000000E+00
  0.00000000E+00  0.00000000E+00  0.00000000E+00
  0.00000000E+00  0.00000000E+00  0.00000000E+00
  0.00000000E+00  0.00000000E+00  0.00000000E+00
  0.00000000E+00  0.00000000E+00  0.00000000E+00
  0.00000000E+00  0.00000000E+00  0.00000000E+00
  0.00000000E+00  0.00000000E+00  0.00000000E+00
  0.00000000E+00  0.00000000E+00  0.00000000E+00
  0.00000000E+00  0.00000000E+00  0.00000000E+00
  0.00000000E+00  0.00000000E+00  0.00000000E+00
  0.00000000E+00  0.00000000E+00  0.00000000E+00
  0.00000000E+00  0.00000000E+00  0.00000000E+00
  0.00000000E+00  0.00000000E+00  0.00000000E+00
  0.00000000E+00  0.00000000E+00  0.00000000E+00
  0.00000000E+00  0.00000000E+00  0.00000000E+00
  0.00000000E+00  0.00000000E+00  0.00000000E+00
  0.00000000E+00  0.00000000E+00  0.00000000E+00
  0.00000000E+00  0.00000000E+00  0.00000000E+00
  0.00000000E+00  0.00000000E+00  0.00000000E+00
  0.00000000E+00  0.00000000E+00  0.00000000E+00
  0.00000000E+00  0.00000000E+00  0.00000000E+00
  0.00000000E+00  0.00000000E+00  0.00000000E+00
  0.00000000E+00  0.00000000E+00  0.00000000E+00
  0.00000000E+00  0.00000000E+00  0.00000000E+00
  0.00000000E+00  0.00000000E+00  0.00000000E+00
  0.00000000E+00  0.00000000E+00  0.00000000E+00
  0.00000000E+00  0.00000000E+00  0.00000000E+00
  0.00000000E+00  0.00000000E+00  0.00000000E+00
  0.00000000E+00  0.00000000E+00  0.00000000E+00
  0.00000000E+00  0.00000000E+00  0.00000000E+00
  0.00000000E+00  0.00000000E+00  0.00000000E+00
  0.00000000E+00  0.00000000E+00  0.00000000E+00
