Pd                                      
    1.000000000000000     
    11.0046904376558210    0.0000000000000000    0.0000000000000000
     0.0000000000000000   11.0046904376558210    0.0000000000000000
     0.0000000000000000    0.0000000000000000   27.7814912333251840
   Pd
    80
Selective dynamics
Direct
  0.0000000000000000  0.0000000000000000  0.0539927820073487   F   F   F
  0.3750000000000000  0.6250000000000000  0.2640649619338618   T   T   T
  0.1250000000000000  0.6250000000000000  0.2640649619338618   T   T   T
  0.8750000000000000  0.3750000000000000  0.2640649619338618   T   T   T
  0.6250000000000000  0.3750000000000000  0.2640649619338618   T   T   T
  0.3750000000000000  0.3750000000000000  0.2640649619338618   T   T   T
  0.1250000000000000  0.3750000000000000  0.2640649619338618   T   T   T
  0.8750000000000000  0.1250000000000000  0.2640649619338618   T   T   T
  0.6250000000000000  0.6250000000000000  0.2640649619338618   T   T   T
  0.6250000000000000  0.1250000000000000  0.2640649619338618   T   T   T
  0.1250000000000000  0.1250000000000000  0.2640649619338618   T   T   T
  0.7500000000000000  0.7500000000000000  0.1940409019583598   T   T   T
  0.5000000000000000  0.7500000000000000  0.1940409019583598   T   T   T
  0.2500000000000000  0.7500000000000000  0.1940409019583598   T   T   T
  0.0000000000000000  0.7500000000000000  0.1940409019583598   T   T   T
  0.7500000000000000  0.5000000000000000  0.1940409019583598   T   T   T
  0.5000000000000000  0.5000000000000000  0.1940409019583598   T   T   T
  0.3750000000000000  0.1250000000000000  0.2640649619338618   T   T   T
  0.2500000000000000  0.5000000000000000  0.1940409019583598   T   T   T
  0.8750000000000000  0.6250000000000000  0.2640649619338618   T   T   T
  0.3750000000000000  0.8750000000000000  0.2640649619338618   T   T   T
  0.2500000000000000  0.7500000000000000  0.3340890219093637   T   T   T
  0.0000000000000000  0.7500000000000000  0.3340890219093637   T   T   T
  0.7500000000000000  0.5000000000000000  0.3340890219093637   T   T   T
  0.5000000000000000  0.5000000000000000  0.3340890219093637   T   T   T
  0.2500000000000000  0.5000000000000000  0.3340890219093637   T   T   T
  0.0000000000000000  0.5000000000000000  0.3340890219093637   T   T   T
  0.7500000000000000  0.2500000000000000  0.3340890219093637   T   T   T
  0.1250000000000000  0.8750000000000000  0.2640649619338618   T   T   T
  0.5000000000000000  0.2500000000000000  0.3340890219093637   T   T   T
  0.0000000000000000  0.2500000000000000  0.3340890219093637   T   T   T
  0.7500000000000000  0.0000000000000000  0.3340890219093637   T   T   T
  0.5000000000000000  0.0000000000000000  0.3340890219093637   T   T   T
  0.2500000000000000  0.0000000000000000  0.3340890219093637   T   T   T
  0.0000000000000000  0.0000000000000000  0.3340890219093637   T   T   T
  0.8750000000000000  0.8750000000000000  0.2640649619338618   T   T   T
  0.6250000000000000  0.8750000000000000  0.2640649619338618   T   T   T
  0.2500000000000000  0.2500000000000000  0.3340890219093637   T   T   T
  0.0000000000000000  0.5000000000000000  0.1940409019583598   T   T   T
  0.7500000000000000  0.2500000000000000  0.1940409019583598   T   T   T
  0.5000000000000000  0.2500000000000000  0.1940409019583598   T   T   T
  0.1250000000000000  0.1250000000000000  0.1240168419828507   F   F   F
  0.7500000000000000  0.7500000000000000  0.0539927820073487   F   F   F
  0.5000000000000000  0.7500000000000000  0.0539927820073487   F   F   F
  0.2500000000000000  0.7500000000000000  0.0539927820073487   F   F   F
  0.0000000000000000  0.7500000000000000  0.0539927820073487   F   F   F
  0.7500000000000000  0.5000000000000000  0.0539927820073487   F   F   F
  0.5000000000000000  0.5000000000000000  0.0539927820073487   F   F   F
  0.3750000000000000  0.1250000000000000  0.1240168419828507   F   F   F
  0.2500000000000000  0.5000000000000000  0.0539927820073487   F   F   F
  0.7500000000000000  0.2500000000000000  0.0539927820073487   F   F   F
  0.5000000000000000  0.2500000000000000  0.0539927820073487   F   F   F
  0.2500000000000000  0.2500000000000000  0.0539927820073487   F   F   F
  0.0000000000000000  0.2500000000000000  0.0539927820073487   F   F   F
  0.7500000000000000  0.0000000000000000  0.0539927820073487   F   F   F
  0.5000000000000000  0.0000000000000000  0.0539927820073487   F   F   F
  0.2500000000000000  0.0000000000000000  0.0539927820073487   F   F   F
  0.0000000000000000  0.5000000000000000  0.0539927820073487   F   F   F
  0.6250000000000000  0.1250000000000000  0.1240168419828507   F   F   F
  0.8750000000000000  0.1250000000000000  0.1240168419828507   F   F   F
  0.1250000000000000  0.3750000000000000  0.1240168419828507   F   F   F
  0.2500000000000000  0.2500000000000000  0.1940409019583598   T   T   T
  0.0000000000000000  0.2500000000000000  0.1940409019583598   T   T   T
  0.7500000000000000  0.0000000000000000  0.1940409019583598   T   T   T
  0.5000000000000000  0.0000000000000000  0.1940409019583598   T   T   T
  0.2500000000000000  0.0000000000000000  0.1940409019583598   T   T   T
  0.0000000000000000  0.0000000000000000  0.1940409019583598   T   T   T
  0.8750000000000000  0.8750000000000000  0.1240168419828507   F   F   F
  0.6250000000000000  0.8750000000000000  0.1240168419828507   F   F   F
  0.3750000000000000  0.8750000000000000  0.1240168419828507   F   F   F
  0.1250000000000000  0.8750000000000000  0.1240168419828507   F   F   F
  0.8750000000000000  0.6250000000000000  0.1240168419828507   F   F   F
  0.6250000000000000  0.6250000000000000  0.1240168419828507   F   F   F
  0.3750000000000000  0.6250000000000000  0.1240168419828507   F   F   F
  0.1250000000000000  0.6250000000000000  0.1240168419828507   F   F   F
  0.8750000000000000  0.3750000000000000  0.1240168419828507   F   F   F
  0.6250000000000000  0.3750000000000000  0.1240168419828507   F   F   F
  0.3750000000000000  0.3750000000000000  0.1240168419828507   F   F   F
  0.5000000000000000  0.7500000000000000  0.3340890219093637   T   T   T
  0.7500000000000000  0.7500000000000000  0.3340890219093637   T   T   T
 
  0.00000000E+00  0.00000000E+00  0.00000000E+00
  0.00000000E+00  0.00000000E+00  0.00000000E+00
  0.00000000E+00  0.00000000E+00  0.00000000E+00
  0.00000000E+00  0.00000000E+00  0.00000000E+00
  0.00000000E+00  0.00000000E+00  0.00000000E+00
  0.00000000E+00  0.00000000E+00  0.00000000E+00
  0.00000000E+00  0.00000000E+00  0.00000000E+00
  0.00000000E+00  0.00000000E+00  0.00000000E+00
  0.00000000E+00  0.00000000E+00  0.00000000E+00
  0.00000000E+00  0.00000000E+00  0.00000000E+00
  0.00000000E+00  0.00000000E+00  0.00000000E+00
  0.00000000E+00  0.00000000E+00  0.00000000E+00
  0.00000000E+00  0.00000000E+00  0.00000000E+00
  0.00000000E+00  0.00000000E+00  0.00000000E+00
  0.00000000E+00  0.00000000E+00  0.00000000E+00
  0.00000000E+00  0.00000000E+00  0.00000000E+00
  0.00000000E+00  0.00000000E+00  0.00000000E+00
  0.00000000E+00  0.00000000E+00  0.00000000E+00
  0.00000000E+00  0.00000000E+00  0.00000000E+00
  0.00000000E+00  0.00000000E+00  0.00000000E+00
  0.00000000E+00  0.00000000E+00  0.00000000E+00
  0.00000000E+00  0.00000000E+00  0.00000000E+00
  0.00000000E+00  0.00000000E+00  0.00000000E+00
  0.00000000E+00  0.00000000E+00  0.00000000E+00
  0.00000000E+00  0.00000000E+00  0.00000000E+00
  0.00000000E+00  0.00000000E+00  0.00000000E+00
  0.00000000E+00  0.00000000E+00  0.00000000E+00
  0.00000000E+00  0.00000000E+00  0.00000000E+00
  0.00000000E+00  0.00000000E+00  0.00000000E+00
  0.00000000E+00  0.00000000E+00  0.00000000E+00
  0.00000000E+00  0.00000000E+00  0.00000000E+00
  0.00000000E+00  0.00000000E+00  0.00000000E+00
  0.00000000E+00  0.00000000E+00  0.00000000E+00
  0.00000000E+00  0.00000000E+00  0.00000000E+00
  0.00000000E+00  0.00000000E+00  0.00000000E+00
  0.00000000E+00  0.00000000E+00  0.00000000E+00
  0.00000000E+00  0.00000000E+00  0.00000000E+00
  0.00000000E+00  0.00000000E+00  0.00000000E+00
  0.00000000E+00  0.00000000E+00  0.00000000E+00
  0.00000000E+00  0.00000000E+00  0.00000000E+00
  0.00000000E+00  0.00000000E+00  0.00000000E+00
  0.00000000E+00  0.00000000E+00  0.00000000E+00
  0.00000000E+00  0.00000000E+00  0.00000000E+00
  0.00000000E+00  0.00000000E+00  0.00000000E+00
  0.00000000E+00  0.00000000E+00  0.00000000E+00
  0.00000000E+00  0.00000000E+00  0.00000000E+00
  0.00000000E+00  0.00000000E+00  0.00000000E+00
  0.00000000E+00  0.00000000E+00  0.00000000E+00
  0.00000000E+00  0.00000000E+00  0.00000000E+00
  0.00000000E+00  0.00000000E+00  0.00000000E+00
  0.00000000E+00  0.00000000E+00  0.00000000E+00
  0.00000000E+00  0.00000000E+00  0.00000000E+00
  0.00000000E+00  0.00000000E+00  0.00000000E+00
  0.00000000E+00  0.00000000E+00  0.00000000E+00
  0.00000000E+00  0.00000000E+00  0.00000000E+00
  0.00000000E+00  0.00000000E+00  0.00000000E+00
  0.00000000E+00  0.00000000E+00  0.00000000E+00
  0.00000000E+00  0.00000000E+00  0.00000000E+00
  0.00000000E+00  0.00000000E+00  0.00000000E+00
  0.00000000E+00  0.00000000E+00  0.00000000E+00
  0.00000000E+00  0.00000000E+00  0.00000000E+00
  0.00000000E+00  0.00000000E+00  0.00000000E+00
  0.00000000E+00  0.00000000E+00  0.00000000E+00
  0.00000000E+00  0.00000000E+00  0.00000000E+00
  0.00000000E+00  0.00000000E+00  0.00000000E+00
  0.00000000E+00  0.00000000E+00  0.00000000E+00
  0.00000000E+00  0.00000000E+00  0.00000000E+00
  0.00000000E+00  0.00000000E+00  0.00000000E+00
  0.00000000E+00  0.00000000E+00  0.00000000E+00
  0.00000000E+00  0.00000000E+00  0.00000000E+00
  0.00000000E+00  0.00000000E+00  0.00000000E+00
  0.00000000E+00  0.00000000E+00  0.00000000E+00
  0.00000000E+00  0.00000000E+00  0.00000000E+00
  0.00000000E+00  0.00000000E+00  0.00000000E+00
  0.00000000E+00  0.00000000E+00  0.00000000E+00
  0.00000000E+00  0.00000000E+00  0.00000000E+00
  0.00000000E+00  0.00000000E+00  0.00000000E+00
  0.00000000E+00  0.00000000E+00  0.00000000E+00
  0.00000000E+00  0.00000000E+00  0.00000000E+00
  0.00000000E+00  0.00000000E+00  0.00000000E+00
