Pd
 1.0000000000000000
    11.0046904376558210    0.0000000000000000    0.0000000000000000
     0.0000000000000000   11.0046904376558210    0.0000000000000000
     0.0000000000000000    0.0000000000000000   27.7814912333251840
 Pd 
  80
Selective dynamics
Cartesian
  0.0000000000000000  0.0000000000000000  1.5000000000000000   F   F   F
  4.1267589141209324  6.8779315235348886  7.3361184249938898   T   T   T
  1.3755863047069776  6.8779315235348886  7.3361184249938898   T   T   T
  9.6291041329488429  4.1267589141209324  7.3361184249938898   T   T   T
  6.8779315235348886  4.1267589141209324  7.3361184249938898   T   T   T
  4.1267589141209324  4.1267589141209324  7.3361184249938898   T   T   T
  1.3755863047069776  4.1267589141209324  7.3361184249938898   T   T   T
  9.6291041329488429  1.3755863047069776  7.3361184249938898   T   T   T
  6.8779315235348886  6.8779315235348886  7.3361184249938898   T   T   T
  6.8779315235348886  1.3755863047069776  7.3361184249938898   T   T   T
  1.3755863047069776  1.3755863047069776  7.3361184249938898   T   T   T
  8.2535178282418649  8.2535178282418649  5.3907456166625929   T   T   T
  5.5023452188279105  8.2535178282418649  5.3907456166625929   T   T   T
  2.7511726094139553  8.2535178282418649  5.3907456166625929   T   T   T
  0.0000000000000000  8.2535178282418649  5.3907456166625929   T   T   T
  8.2535178282418649  5.5023452188279105  5.3907456166625929   T   T   T
  5.5023452188279105  5.5023452188279105  5.3907456166625929   T   T   T
  4.1267589141209324  1.3755863047069776  7.3361184249938898   T   T   T
  2.7511726094139553  5.5023452188279105  5.3907456166625929   T   T   T
  9.6291041329488429  6.8779315235348886  7.3361184249938898   T   T   T
  4.1267589141209324  9.6291041329488429  7.3361184249938898   T   T   T
  2.7511726094139553  8.2535178282418649  9.2814912333251858   T   T   T
  0.0000000000000000  8.2535178282418649  9.2814912333251858   T   T   T
  8.2535178282418649  5.5023452188279105  9.2814912333251858   T   T   T
  5.5023452188279105  5.5023452188279105  9.2814912333251858   T   T   T
  2.7511726094139553  5.5023452188279105  9.2814912333251858   T   T   T
  0.0000000000000000  5.5023452188279105  9.2814912333251858   T   T   T
  8.2535178282418649  2.7511726094139553  9.2814912333251858   T   T   T
  1.3755863047069776  9.6291041329488429  7.3361184249938898   T   T   T
  5.5023452188279105  2.7511726094139553  9.2814912333251858   T   T   T
  0.0000000000000000  2.7511726094139553  9.2814912333251858   T   T   T
  8.2535178282418649  0.0000000000000000  9.2814912333251858   T   T   T
  5.5023452188279105  0.0000000000000000  9.2814912333251858   T   T   T
  2.7511726094139553  0.0000000000000000  9.2814912333251858   T   T   T
  0.0000000000000000  0.0000000000000000  9.2814912333251858   T   T   T
  9.6291041329488429  9.6291041329488429  7.3361184249938898   T   T   T
  6.8779315235348886  9.6291041329488429  7.3361184249938898   T   T   T
  2.7511726094139553  2.7511726094139553  9.2814912333251858   T   T   T
  0.0000000000000000  5.5023452188279105  5.3907456166625929   T   T   T
  8.2535178282418649  2.7511726094139553  5.3907456166625929   T   T   T
  5.5023452188279105  2.7511726094139553  5.3907456166625929   T   T   T
  1.3755863047069776  1.3755863047069776  3.4453728083312964   F   F   F
  8.2535178282418649  8.2535178282418649  1.5000000000000000   F   F   F
  5.5023452188279105  8.2535178282418649  1.5000000000000000   F   F   F
  2.7511726094139553  8.2535178282418649  1.5000000000000000   F   F   F
  0.0000000000000000  8.2535178282418649  1.5000000000000000   F   F   F
  8.2535178282418649  5.5023452188279105  1.5000000000000000   F   F   F
  5.5023452188279105  5.5023452188279105  1.5000000000000000   F   F   F
  4.1267589141209324  1.3755863047069776  3.4453728083312964   F   F   F
  2.7511726094139553  5.5023452188279105  1.5000000000000000   F   F   F
  8.2535178282418649  2.7511726094139553  1.5000000000000000   F   F   F
  5.5023452188279105  2.7511726094139553  1.5000000000000000   F   F   F
  2.7511726094139553  2.7511726094139553  1.5000000000000000   F   F   F
  0.0000000000000000  2.7511726094139553  1.5000000000000000   F   F   F
  8.2535178282418649  0.0000000000000000  1.5000000000000000   F   F   F
  5.5023452188279105  0.0000000000000000  1.5000000000000000   F   F   F
  2.7511726094139553  0.0000000000000000  1.5000000000000000   F   F   F
  0.0000000000000000  5.5023452188279105  1.5000000000000000   F   F   F
  6.8779315235348886  1.3755863047069776  3.4453728083312964   F   F   F
  9.6291041329488429  1.3755863047069776  3.4453728083312964   F   F   F
  1.3755863047069776  4.1267589141209324  3.4453728083312964   F   F   F
  2.7511726094139553  2.7511726094139553  5.3907456166625929   T   T   T
  0.0000000000000000  2.7511726094139553  5.3907456166625929   T   T   T
  8.2535178282418649  0.0000000000000000  5.3907456166625929   T   T   T
  5.5023452188279105  0.0000000000000000  5.3907456166625929   T   T   T
  2.7511726094139553  0.0000000000000000  5.3907456166625929   T   T   T
  0.0000000000000000  0.0000000000000000  5.3907456166625929   T   T   T
  9.6291041329488429  9.6291041329488429  3.4453728083312964   F   F   F
  6.8779315235348886  9.6291041329488429  3.4453728083312964   F   F   F
  4.1267589141209324  9.6291041329488429  3.4453728083312964   F   F   F
  1.3755863047069776  9.6291041329488429  3.4453728083312964   F   F   F
  9.6291041329488429  6.8779315235348886  3.4453728083312964   F   F   F
  6.8779315235348886  6.8779315235348886  3.4453728083312964   F   F   F
  4.1267589141209324  6.8779315235348886  3.4453728083312964   F   F   F
  1.3755863047069776  6.8779315235348886  3.4453728083312964   F   F   F
  9.6291041329488429  4.1267589141209324  3.4453728083312964   F   F   F
  6.8779315235348886  4.1267589141209324  3.4453728083312964   F   F   F
  4.1267589141209324  4.1267589141209324  3.4453728083312964   F   F   F
  5.5023452188279105  8.2535178282418649  9.2814912333251858   T   T   T
  8.2535178282418649  8.2535178282418649  9.2814912333251858   T   T   T
