C  H  O  Pd
 1.0000000000000000
    12.2143708368485502    0.0000000000000000    0.0000000000000007
     0.0000000000000017   10.8116922467861709    0.0000000000000007
     0.0000000000000000    0.0000000000000000   30.6875744822424821
 C   H   O   Pd 
   1   3  65  64
Selective dynamics
Direct
  0.3814998986892225  0.8997236463265690  0.4822092656425189   T   T   T
  0.4699745438902536  0.8770300532349934  0.4841406027806282   T   T   T
  0.3508878790117882  0.9201011626618715  0.5155842039657488   T   T   T
  0.3363977083284319  0.8186272153446364  0.4692881514679198   T   T   T
  0.9980181856979211  0.3802203267344980  0.3960209579698357   T   T   T
  0.0000007785774361  0.8746366631057728  0.1990387117510663   F   F   F
 -0.0043672739036452  0.1216357855264249  0.3961873244028732   T   T   T
  0.2494531591753560  0.3756400803660026  0.2985042227023363   T   T   T
  0.0000000000000000  0.6250000000000000  0.0986326357059468   F   F   F
  0.9959276127872215  0.8797827815237927  0.3963569115928892   T   T   T
  0.2478156380034245  0.1257696345849616  0.2991527562606773   T   T   T
  0.0000001489023768  0.6253641828117400  0.1990385236877962   F   F   F
  0.7491663978763008  0.3751777232396371  0.2985935319166724   T   T   T
  0.4979103040397052  0.8749117018775506  0.2991232842159087   T   T   T
  0.4994608570519791  0.6259117902374439  0.2987690310410378   T   T   T
  0.4969950320158312  0.8794047976789121  0.3963421947956024   T   T   T
  0.7480651340668326  0.6214766689482538  0.3967242577865043   T   T   T
 -0.0021785142374820  0.8747923295873636  0.2986428892272732   T   T   T
 -0.0008486678015519  0.6256535546994504  0.2986637484616138   T   T   T
  0.4982131381376733  0.6217874718663642  0.3967573268997219   T   T   T
  0.9991703045451870  0.3751582850709759  0.2984191572184465   T   T   T
  0.9978566427628970  0.6212915117784471  0.3964266835317660   T   T   T
  0.0000003667133454  0.1253639748692094  0.1990386316366852   F   F   F
  0.0000002712633380  0.3746360819220366  0.1990386009744299   F   F   F
  0.2500000000000000  0.3750000000000000  0.0986326357059468   F   F   F
 -0.0000000000000000  0.8750000000000001  0.0986326357059468   F   F   F
  0.2499998638177366  0.3746354513558036  0.1990391137478614   F   F   F
  0.2500000000000000  0.1250000000000000  0.0986326357059468   F   F   F
  0.2500003118916107  0.1253643742758414  0.1990388468832426   F   F   F
  0.0000000000000000  0.3750000000000000  0.0986326357059468   F   F   F
  0.0000000000000000  0.1250000000000000  0.0986326357059468   F   F   F
  0.3608176405389616  1.0102617173373312  0.4590975145317445   T   T   T
 -0.0021619584058930  0.1256781516132493  0.2985990560180459   T   T   T
  0.7500000000000000  0.3750000000000000  0.0986326357059468   F   F   F
  0.2480163788441025  0.6220274386056862  0.3969805251670614   T   T   T
  0.7500004982174803  0.3746360905691121  0.1990382815073973   F   F   F
  0.2500000725690806  0.8746359244060554  0.1990388968624472   F   F   F
  0.2500000575081164  0.6253646356490544  0.1990388586176256   F   F   F
  0.2477400359898406  0.8747232814570525  0.2991376210192477   T   T   T
  0.2492728111125775  0.6257445896843725  0.2988142132940935   T   T   T
  0.2443122543118468  0.8789149724404753  0.3962248364092927   T   T   T
  0.7458853701433411  0.8798649648380829  0.3966150797222468   T   T   T
  0.2500000000000000  0.6250000000000000  0.0986326357059468   F   F   F
  0.5000000000000000  0.3750000000000000  0.0986326357059468   F   F   F
  0.4999999938080711  0.3746360868658646  0.1990385922315757   F   F   F
  0.4999998368048840  0.1253637532206347  0.1990388322615649   F   F   F
  0.4974665761634591  0.1227056392383117  0.3959507768393366   T   T   T
  0.4981291488915593  0.3804657208107270  0.3960625475375901   T   T   T
  0.4979194959382682  0.1256997838139484  0.2991309015569066   T   T   T
  0.7500000000000000  0.1250000000000000  0.0986326357059468   F   F   F
  0.5000000000000000  0.1250000000000000  0.0986326357059468   F   F   F
  0.2500000000000000  0.8750000000000001  0.0986326357059468   F   F   F
  0.4993791375596133  0.3755068947994836  0.2983913913864156   T   T   T
  0.5000000000000000  0.8750000000000001  0.0986326357059468   F   F   F
  0.2440250684012052  0.1229500102968677  0.3956612448868936   T   T   T
  0.7500000114023815  0.1253633646095497  0.1990386859845709   F   F   F
  0.2480087513985486  0.3804030991628972  0.3963508874262149   T   T   T
  0.7479261436210808  0.3799828444294409  0.3963390709345709   T   T   T
  0.7461280932191708  0.1214308887809577  0.3963609657903164   T   T   T
  0.7500000000000000  0.8750000000000001  0.0986326357059468   F   F   F
  0.7500000000000000  0.6250000000000000  0.0986326357059468   F   F   F
  0.7479195207384828  0.1256115205959100  0.2987180090580716   T   T   T
  0.7500002133337712  0.6253633161861426  0.1990388060063935   F   F   F
  0.7479546750479130  0.8750508585576863  0.2987837408780398   T   T   T
  0.7493213774589312  0.6259790306834102  0.2988468009812718   T   T   T
  0.5000001784867202  0.6253637522044813  0.1990389446145577   F   F   F
  0.4999995794704318  0.8746354974934157  0.1990386872989469   F   F   F
  0.7500002014178647  0.8746343896298040  0.1990386967425212   F   F   F
  0.5000000000000000  0.6250000000000000  0.0986326357059468   F   F   F
  0.0000000644614895  0.7499997055339565  0.1487767856559003   F   F   F
  0.4991676022915810  0.7503850359703078  0.2492989090172245   T   T   T
  0.1231554865270744  0.5010019962974105  0.3915908430216644   T   T   T
  0.6250000000000000  0.0000000000000000  0.0986326357059468   F   F   F
  0.5000000000000000  0.2500000000000000  0.0488797184302712   F   F   F
  0.3705105912161875  0.0012524360293421  0.3943896817805342   T   T   T
  0.2473852306090417  0.2517114471880566  0.3504089534468275   T   T   T
  0.2498432902928770  0.2499691236781175  0.2492698061217523   T   T   T
  0.2500000000000000  0.7500000000000000  0.0488797184302712   F   F   F
  0.3750000000000000  0.5000000000000000  0.0986326357059468   F   F   F
  0.3750013085010481  0.9999996425241101  0.1993178715196733   F   F   F
  0.2500002436688700  0.7499998371993483  0.1487767841964014   F   F   F
  0.5000000890861059  0.7499991063848873  0.1487764921061197   F   F   F
  0.1242932131437510  0.5005147576090812  0.2975838310460119   T   T   T
  0.6250000000000000  0.5000000000000000  0.0986326357059468   F   F   F
  0.5000000000000000  0.7500000000000000  0.0488797184302712   F   F   F
 -0.0008899761356728  0.7500912221404569  0.2492284717205981   T   T   T
  0.6212728313952937  1.0008900271147909  0.3914560619129701   T   T   T
  0.4978748469993753  0.2513244275584601  0.3503311603818472   T   T   T
  0.6229146633096784  0.0003062474419765  0.2980572548292777   T   T   T
  0.4990856010342613  0.2499738518246482  0.2492122164661766   T   T   T
  0.9975113060864330  0.7503865650392620  0.3507127296074589   T   T   T
  0.6250011512513076  0.9999984342009582  0.1993176556340738   F   F   F
  0.5000000412290440  0.2500002002978380  0.1487764123606149   F   F   F
  0.1250000000000000  0.5000000000000000  0.0986326357059468   F   F   F
  0.0000000000000000  0.2500000000000000  0.0488797184302712   F   F   F
  0.3750004864510694  0.5000000253507203  0.1993181014519463   F   F   F
  0.1250005006673170  0.4999996619028680  0.1993179793341455   F   F   F
  0.2500000000000000  0.2500000000000000  0.0488797184302712   F   F   F
  0.4978325045854947  0.7501076763070937  0.3507392585111900   T   T   T
  0.2496793083847068  0.7503869545991190  0.2493213680174461   T   T   T
  0.6231341560545735  0.5009410541333176  0.3916353029517045   T   T   T
  0.8729251265888013  0.5006821353165912  0.3915316361058459   T   T   T
  0.7477709947542186  0.7505703450004855  0.3509315990829178   T   T   T
  0.1250000000000000  0.0000000000000000  0.0986326357059468   F   F   F
  0.7500000000000000  0.2500000000000000  0.0488797184302712   F   F   F
  0.8750000000000000  0.0000000000000000  0.0986326357059468   F   F   F
  0.8742630147105830  0.5004633724705334  0.2976223319361773   T   T   T
  0.1203643789309400  0.0009239561869145  0.3914092780925403   T   T   T
  0.7500000714258059  0.2500001333654533  0.1487767298788664   F   F   F
  0.8749990435797278  0.9999988729247118  0.1993176942245059   F   F   F
  0.7499999695802716  0.7499987873488344  0.1487766346932499   F   F   F
  0.1249992154568337  0.0000000621413549  0.1993179005561505   F   F   F
  0.7492832278628981  0.7502476073009045  0.2493233936843179   T   T   T
  0.7492719660736155  0.2501469279616758  0.2492487504473869   T   T   T
  0.8728808298727215  0.0003052911419660  0.2977521044029604   T   T   T
  0.0000001104490266  0.2500003692293262  0.1487770372582357   F   F   F
  0.1226712670700334  1.0002484893978250  0.2978917746959012   T   T   T
  0.3745129198192425  0.5007901356182557  0.2977421370455852   T   T   T
  0.3750000000000000  0.0000000000000000  0.0986326357059468   F   F   F
  0.2472765217530444  0.7499154622854770  0.3508168226861461   T   T   T
  0.3730492147176190  0.5011548444485604  0.3916706816961501   T   T   T
  0.6244889955404870  0.5006733476795503  0.2977219034035996   T   T   T
  0.6249997369785575  0.5000005243672183  0.1993177510521300   F   F   F
  0.2500001827845806  0.2500004790494265  0.1487770501254799   F   F   F
  0.3727581418767197  0.0002977117381388  0.2994837582264687   T   T   T
  0.8750000000000000  0.5000000000000000  0.0986326357059468   F   F   F
  0.7500000000000000  0.7500000000000000  0.0488797184302712   F   F   F
  0.8749998623887097  0.5000001886345932  0.1993177285951360   F   F   F
 -0.0008616268416341  0.2501092286301459  0.2491533799324870   T   T   T
  0.8708133813258849  1.0006379337093290  0.3915309683253513   T   T   T
  0.7476309423143933  0.2506823521569767  0.3506529553158406   T   T   T
  0.9975955853308208  0.2507966436424776  0.3504509463049312   T   T   T
  0.0000000000000000  0.7500000000000000  0.0488797184302712   F   F   F
Cartesian
  0.0000000000000000  0.0000000000000000  0.0000000000000000
  0.0000000000000000  0.0000000000000000  0.0000000000000000
  0.0000000000000000  0.0000000000000000  0.0000000000000000
  0.0000000000000000  0.0000000000000000  0.0000000000000000
  0.0000000000000000  0.0000000000000000  0.0000000000000000
  0.0000000000000000  0.0000000000000000  0.0000000000000000
  0.0000000000000000  0.0000000000000000  0.0000000000000000
  0.0000000000000000  0.0000000000000000  0.0000000000000000
  0.0000000000000000  0.0000000000000000  0.0000000000000000
  0.0000000000000000  0.0000000000000000  0.0000000000000000
  0.0000000000000000  0.0000000000000000  0.0000000000000000
  0.0000000000000000  0.0000000000000000  0.0000000000000000
  0.0000000000000000  0.0000000000000000  0.0000000000000000
  0.0000000000000000  0.0000000000000000  0.0000000000000000
  0.0000000000000000  0.0000000000000000  0.0000000000000000
  0.0000000000000000  0.0000000000000000  0.0000000000000000
  0.0000000000000000  0.0000000000000000  0.0000000000000000
  0.0000000000000000  0.0000000000000000  0.0000000000000000
  0.0000000000000000  0.0000000000000000  0.0000000000000000
  0.0000000000000000  0.0000000000000000  0.0000000000000000
  0.0000000000000000  0.0000000000000000  0.0000000000000000
  0.0000000000000000  0.0000000000000000  0.0000000000000000
  0.0000000000000000  0.0000000000000000  0.0000000000000000
  0.0000000000000000  0.0000000000000000  0.0000000000000000
  0.0000000000000000  0.0000000000000000  0.0000000000000000
  0.0000000000000000  0.0000000000000000  0.0000000000000000
  0.0000000000000000  0.0000000000000000  0.0000000000000000
  0.0000000000000000  0.0000000000000000  0.0000000000000000
  0.0000000000000000  0.0000000000000000  0.0000000000000000
  0.0000000000000000  0.0000000000000000  0.0000000000000000
  0.0000000000000000  0.0000000000000000  0.0000000000000000
  0.0000000000000000  0.0000000000000000  0.0000000000000000
  0.0000000000000000  0.0000000000000000  0.0000000000000000
  0.0000000000000000  0.0000000000000000  0.0000000000000000
  0.0000000000000000  0.0000000000000000  0.0000000000000000
  0.0000000000000000  0.0000000000000000  0.0000000000000000
  0.0000000000000000  0.0000000000000000  0.0000000000000000
  0.0000000000000000  0.0000000000000000  0.0000000000000000
  0.0000000000000000  0.0000000000000000  0.0000000000000000
  0.0000000000000000  0.0000000000000000  0.0000000000000000
  0.0000000000000000  0.0000000000000000  0.0000000000000000
  0.0000000000000000  0.0000000000000000  0.0000000000000000
  0.0000000000000000  0.0000000000000000  0.0000000000000000
  0.0000000000000000  0.0000000000000000  0.0000000000000000
  0.0000000000000000  0.0000000000000000  0.0000000000000000
  0.0000000000000000  0.0000000000000000  0.0000000000000000
  0.0000000000000000  0.0000000000000000  0.0000000000000000
  0.0000000000000000  0.0000000000000000  0.0000000000000000
  0.0000000000000000  0.0000000000000000  0.0000000000000000
  0.0000000000000000  0.0000000000000000  0.0000000000000000
  0.0000000000000000  0.0000000000000000  0.0000000000000000
  0.0000000000000000  0.0000000000000000  0.0000000000000000
  0.0000000000000000  0.0000000000000000  0.0000000000000000
  0.0000000000000000  0.0000000000000000  0.0000000000000000
  0.0000000000000000  0.0000000000000000  0.0000000000000000
  0.0000000000000000  0.0000000000000000  0.0000000000000000
  0.0000000000000000  0.0000000000000000  0.0000000000000000
  0.0000000000000000  0.0000000000000000  0.0000000000000000
  0.0000000000000000  0.0000000000000000  0.0000000000000000
  0.0000000000000000  0.0000000000000000  0.0000000000000000
  0.0000000000000000  0.0000000000000000  0.0000000000000000
  0.0000000000000000  0.0000000000000000  0.0000000000000000
  0.0000000000000000  0.0000000000000000  0.0000000000000000
  0.0000000000000000  0.0000000000000000  0.0000000000000000
  0.0000000000000000  0.0000000000000000  0.0000000000000000
  0.0000000000000000  0.0000000000000000  0.0000000000000000
  0.0000000000000000  0.0000000000000000  0.0000000000000000
  0.0000000000000000  0.0000000000000000  0.0000000000000000
  0.0000000000000000  0.0000000000000000  0.0000000000000000
  0.0000000000000000  0.0000000000000000  0.0000000000000000
  0.0000000000000000  0.0000000000000000  0.0000000000000000
  0.0000000000000000  0.0000000000000000  0.0000000000000000
  0.0000000000000000  0.0000000000000000  0.0000000000000000
  0.0000000000000000  0.0000000000000000  0.0000000000000000
  0.0000000000000000  0.0000000000000000  0.0000000000000000
  0.0000000000000000  0.0000000000000000  0.0000000000000000
  0.0000000000000000  0.0000000000000000  0.0000000000000000
  0.0000000000000000  0.0000000000000000  0.0000000000000000
  0.0000000000000000  0.0000000000000000  0.0000000000000000
  0.0000000000000000  0.0000000000000000  0.0000000000000000
  0.0000000000000000  0.0000000000000000  0.0000000000000000
  0.0000000000000000  0.0000000000000000  0.0000000000000000
  0.0000000000000000  0.0000000000000000  0.0000000000000000
  0.0000000000000000  0.0000000000000000  0.0000000000000000
  0.0000000000000000  0.0000000000000000  0.0000000000000000
  0.0000000000000000  0.0000000000000000  0.0000000000000000
  0.0000000000000000  0.0000000000000000  0.0000000000000000
  0.0000000000000000  0.0000000000000000  0.0000000000000000
  0.0000000000000000  0.0000000000000000  0.0000000000000000
  0.0000000000000000  0.0000000000000000  0.0000000000000000
  0.0000000000000000  0.0000000000000000  0.0000000000000000
  0.0000000000000000  0.0000000000000000  0.0000000000000000
  0.0000000000000000  0.0000000000000000  0.0000000000000000
  0.0000000000000000  0.0000000000000000  0.0000000000000000
  0.0000000000000000  0.0000000000000000  0.0000000000000000
  0.0000000000000000  0.0000000000000000  0.0000000000000000
  0.0000000000000000  0.0000000000000000  0.0000000000000000
  0.0000000000000000  0.0000000000000000  0.0000000000000000
  0.0000000000000000  0.0000000000000000  0.0000000000000000
  0.0000000000000000  0.0000000000000000  0.0000000000000000
  0.0000000000000000  0.0000000000000000  0.0000000000000000
  0.0000000000000000  0.0000000000000000  0.0000000000000000
  0.0000000000000000  0.0000000000000000  0.0000000000000000
  0.0000000000000000  0.0000000000000000  0.0000000000000000
  0.0000000000000000  0.0000000000000000  0.0000000000000000
  0.0000000000000000  0.0000000000000000  0.0000000000000000
  0.0000000000000000  0.0000000000000000  0.0000000000000000
  0.0000000000000000  0.0000000000000000  0.0000000000000000
  0.0000000000000000  0.0000000000000000  0.0000000000000000
  0.0000000000000000  0.0000000000000000  0.0000000000000000
  0.0000000000000000  0.0000000000000000  0.0000000000000000
  0.0000000000000000  0.0000000000000000  0.0000000000000000
  0.0000000000000000  0.0000000000000000  0.0000000000000000
  0.0000000000000000  0.0000000000000000  0.0000000000000000
  0.0000000000000000  0.0000000000000000  0.0000000000000000
  0.0000000000000000  0.0000000000000000  0.0000000000000000
  0.0000000000000000  0.0000000000000000  0.0000000000000000
  0.0000000000000000  0.0000000000000000  0.0000000000000000
  0.0000000000000000  0.0000000000000000  0.0000000000000000
  0.0000000000000000  0.0000000000000000  0.0000000000000000
  0.0000000000000000  0.0000000000000000  0.0000000000000000
  0.0000000000000000  0.0000000000000000  0.0000000000000000
  0.0000000000000000  0.0000000000000000  0.0000000000000000
  0.0000000000000000  0.0000000000000000  0.0000000000000000
  0.0000000000000000  0.0000000000000000  0.0000000000000000
  0.0000000000000000  0.0000000000000000  0.0000000000000000
  0.0000000000000000  0.0000000000000000  0.0000000000000000
  0.0000000000000000  0.0000000000000000  0.0000000000000000
  0.0000000000000000  0.0000000000000000  0.0000000000000000
  0.0000000000000000  0.0000000000000000  0.0000000000000000
  0.0000000000000000  0.0000000000000000  0.0000000000000000
  0.0000000000000000  0.0000000000000000  0.0000000000000000
  0.0000000000000000  0.0000000000000000  0.0000000000000000
