C  H  O  Pd
 1.0000000000000000
    11.0046904376558210    0.0000000000000000    0.0000000000000000
     0.0000000000000000   11.0046904376558210    0.0000000000000000
     0.0000000000000000    0.0000000000000000   27.7814912333251840
 C   H   O   Pd 
   1   3   1  80
Selective dynamics
Direct
  0.8695770587779345  0.6574145478909704  0.4313429291988194   T   T   T
  0.8639856017994472  0.5658656310057567  0.4141061342030655   T   T   T
  0.7891560254783816  0.6699644686027013  0.4546721610110280   T   T   T
  0.9530345540334353  0.6612121145082324  0.4534970742362065   T   T   T
  0.8719742123603078  0.7528461469721042  0.3964261682512542   T   T   T
  0.0000000000000000  0.7500000000000000  0.0539927820073487   F   F   F
  0.8750000000000000  0.1250000000000000  0.1240168419828507   F   F   F
  0.6250000000000001  0.1250000000000000  0.1240168419828507   F   F   F
  0.0000000000000000  0.5000000000000000  0.0539927820073487   F   F   F
  0.2500000000000000  0.0000000000000000  0.0539927820073487   F   F   F
  0.5000000000000000  0.0000000000000000  0.0539927820073487   F   F   F
  0.7500000000000000  0.0000000000000000  0.0539927820073487   F   F   F
  0.2500000000000000  0.7500000000000000  0.0539927820073487   F   F   F
  0.0000000000000000  0.2500000000000000  0.0539927820073487   F   F   F
  0.5000000000000000  0.2500000000000000  0.0539927820073487   F   F   F
  0.7500000000000000  0.2500000000000000  0.0539927820073487   F   F   F
  0.2500000000000000  0.5000000000000000  0.0539927820073487   F   F   F
  0.3750000000000000  0.1250000000000000  0.1240168419828507   F   F   F
  0.5000000000000000  0.5000000000000000  0.0539927820073487   F   F   F
  0.7500000000000000  0.5000000000000000  0.0539927820073487   F   F   F
  0.1250000000000000  0.3750000000000000  0.1240168419828507   F   F   F
  0.2500000000000000  0.2500000000000000  0.0539927820073487   F   F   F
  0.2487472619301606  0.2497634251934780  0.1954652937316611   F   F   F
  0.5000000000000000  0.7500000000000000  0.0539927820073487   F   F   F
  0.7427305757599846  0.7489555881492859  0.3406763489575415   T   T   T
  0.4958098786213129  0.7492393408685617  0.3388022750708487   T   T   T
  0.3750000000000000  0.3750000000000000  0.1240168419828507   F   F   F
  0.6250000000000001  0.3750000000000000  0.1240168419828507   F   F   F
  0.8750000000000000  0.3750000000000000  0.1240168419828507   F   F   F
  0.1250000000000000  0.6250000000000001  0.1240168419828507   F   F   F
  0.3750000000000000  0.6250000000000001  0.1240168419828507   F   F   F
 -0.0010672526914490  0.2496263574445312  0.1953565563165706   F   F   F
  0.6250000000000001  0.6250000000000001  0.1240168419828507   F   F   F
  0.1250000000000000  0.8750000000000000  0.1240168419828507   F   F   F
  0.3750000000000000  0.8750000000000000  0.1240168419828507   F   F   F
  0.6250000000000001  0.8750000000000000  0.1240168419828507   F   F   F
  0.8750000000000000  0.8750000000000000  0.1240168419828507   F   F   F
 -0.0007047976217132 -0.0008426807502754  0.1955280322049405   T   T   T
  0.2487662949364349 -0.0004709291932913  0.1956298039176550   T   T   T
  0.4987619828978744 -0.0004581205456966  0.1955436849791456   T   T   T
  0.8750000000000000  0.6250000000000001  0.1240168419828507   F   F   F
  0.7486095204668360 -0.0009728574622172  0.1954554143406652   F   F   F
  0.0000000000000000  0.0000000000000000  0.0539927820073487   F   F   F
  0.4987722925779320  0.2496233893693216  0.1954693459146541   F   F   F
  0.3726854806952716  0.1246936246284516  0.2670423874110130   T   T   T
  0.4990622287887405  0.4999804371021773  0.1954702042372420   F   F   F
  0.7487280379735310  0.4999902646493729  0.1955285918469135   T   T   T
 -0.0010123285987011  0.7497853552358421  0.1955579568484693   T   T   T
  0.2486349283229762  0.7500674368182164  0.1956749573927644   T   T   T
  0.4993980549949930  0.7499342713216456  0.1956072623113591   T   T   T
  0.7493629006391199  0.7495770439283940  0.1954500896645723   F   F   F
  0.1229042786205485  0.1243867780280993  0.2668747320807142   T   T   T
  0.6225465327799582  0.1237861658776865  0.2668400622252937   T   T   T
  0.6238489303372516  0.6253601159328251  0.2676136951851704   T   T   T
  0.8727151549268797  0.1242383264929174  0.2666590184760207   T   T   T
  0.1230258928250698  0.3753070665170359  0.2667533588929155   T   T   T
  0.3727126803486335  0.3747745885387627  0.2668027629643445   T   T   T
  0.6225425832486721  0.3743522961641477  0.2668234437168003   T   T   T
  0.8727198628731556  0.3739304427244743  0.2665507384975739   T   T   T
  0.1226461739149517  0.6259257741323291  0.2677290981134705   T   T   T
  0.3730599355400033  0.6247843364468786  0.2669492194954660   T   T   T
  0.2487767272292183  0.5002511738423214  0.1954854257771120   T   T   T
  0.8731920911230825  0.6247463648816233  0.2673367061060622   T   T   T
  0.3728617450914614  0.8746932922011574  0.2671052991254425   T   T   T
  0.2502167088679390  0.7497868458249988  0.3392958112271556   T   T   T
  0.7485505602645346  0.2494232433601037  0.1953272409778162   F   F   F
 -0.0009340292542373  0.5003111486315168  0.1954826867758071   F   F   F
  0.2468763192693849  0.2500613885586325  0.3387033238289150   T   T   T
  0.6239377093712959  0.8730682348578616  0.2676720625916265   T   T   T
  0.8732055917681352  0.8740527545328390  0.2672289674056094   T   T   T
 -0.0023820160526087  0.0020972218659565  0.3384891243884469   T   T   T
  0.2472773409311811  0.0001728684964455  0.3389093433775925   T   T   T
  0.4969129893203106 -0.0004603151891619  0.3387257839978853   T   T   T
  0.1250000000000000  0.1250000000000000  0.1240168419828507   F   F   F
  0.7467341402614708  0.0008377822002310  0.3383335146164975   T   T   T
  0.4968283722282321  0.2493159533877687  0.3387300516742044   T   T   T
  0.1222129579930029  0.8735599728442190  0.2678886721971772   T   T   T
  0.7469956257576449  0.2485096824337283  0.3386192512154498   T   T   T
 -0.0021719503420887  0.4976065523730225  0.3382808892413077   T   T   T
  0.2477882209204685  0.4994501663034978  0.3387792612071931   T   T   T
  0.4970633110230240  0.4989366176240574  0.3386088145811680   T   T   T
  0.7469609875814341  0.4966113828166033  0.3384002346293736   T   T   T
  0.0034081910344638  0.7494825764994865  0.3412437637821595   T   T   T
 -0.0028405976875255  0.2500086712229101  0.3384362748945954   T   T   T
  0.7500000000000000  0.7500000000000000  0.0539927820073487   F   F   F
Cartesian
  0.0000000000000000  0.0000000000000000  0.0000000000000000
  0.0000000000000000  0.0000000000000000  0.0000000000000000
  0.0000000000000000  0.0000000000000000  0.0000000000000000
  0.0000000000000000  0.0000000000000000  0.0000000000000000
  0.0000000000000000  0.0000000000000000  0.0000000000000000
  0.0000000000000000  0.0000000000000000  0.0000000000000000
  0.0000000000000000  0.0000000000000000  0.0000000000000000
  0.0000000000000000  0.0000000000000000  0.0000000000000000
  0.0000000000000000  0.0000000000000000  0.0000000000000000
  0.0000000000000000  0.0000000000000000  0.0000000000000000
  0.0000000000000000  0.0000000000000000  0.0000000000000000
  0.0000000000000000  0.0000000000000000  0.0000000000000000
  0.0000000000000000  0.0000000000000000  0.0000000000000000
  0.0000000000000000  0.0000000000000000  0.0000000000000000
  0.0000000000000000  0.0000000000000000  0.0000000000000000
  0.0000000000000000  0.0000000000000000  0.0000000000000000
  0.0000000000000000  0.0000000000000000  0.0000000000000000
  0.0000000000000000  0.0000000000000000  0.0000000000000000
  0.0000000000000000  0.0000000000000000  0.0000000000000000
  0.0000000000000000  0.0000000000000000  0.0000000000000000
  0.0000000000000000  0.0000000000000000  0.0000000000000000
  0.0000000000000000  0.0000000000000000  0.0000000000000000
  0.0000000000000000  0.0000000000000000  0.0000000000000000
  0.0000000000000000  0.0000000000000000  0.0000000000000000
  0.0000000000000000  0.0000000000000000  0.0000000000000000
  0.0000000000000000  0.0000000000000000  0.0000000000000000
  0.0000000000000000  0.0000000000000000  0.0000000000000000
  0.0000000000000000  0.0000000000000000  0.0000000000000000
  0.0000000000000000  0.0000000000000000  0.0000000000000000
  0.0000000000000000  0.0000000000000000  0.0000000000000000
  0.0000000000000000  0.0000000000000000  0.0000000000000000
  0.0000000000000000  0.0000000000000000  0.0000000000000000
  0.0000000000000000  0.0000000000000000  0.0000000000000000
  0.0000000000000000  0.0000000000000000  0.0000000000000000
  0.0000000000000000  0.0000000000000000  0.0000000000000000
  0.0000000000000000  0.0000000000000000  0.0000000000000000
  0.0000000000000000  0.0000000000000000  0.0000000000000000
  0.0000000000000000  0.0000000000000000  0.0000000000000000
  0.0000000000000000  0.0000000000000000  0.0000000000000000
  0.0000000000000000  0.0000000000000000  0.0000000000000000
  0.0000000000000000  0.0000000000000000  0.0000000000000000
  0.0000000000000000  0.0000000000000000  0.0000000000000000
  0.0000000000000000  0.0000000000000000  0.0000000000000000
  0.0000000000000000  0.0000000000000000  0.0000000000000000
  0.0000000000000000  0.0000000000000000  0.0000000000000000
  0.0000000000000000  0.0000000000000000  0.0000000000000000
  0.0000000000000000  0.0000000000000000  0.0000000000000000
  0.0000000000000000  0.0000000000000000  0.0000000000000000
  0.0000000000000000  0.0000000000000000  0.0000000000000000
  0.0000000000000000  0.0000000000000000  0.0000000000000000
  0.0000000000000000  0.0000000000000000  0.0000000000000000
  0.0000000000000000  0.0000000000000000  0.0000000000000000
  0.0000000000000000  0.0000000000000000  0.0000000000000000
  0.0000000000000000  0.0000000000000000  0.0000000000000000
  0.0000000000000000  0.0000000000000000  0.0000000000000000
  0.0000000000000000  0.0000000000000000  0.0000000000000000
  0.0000000000000000  0.0000000000000000  0.0000000000000000
  0.0000000000000000  0.0000000000000000  0.0000000000000000
  0.0000000000000000  0.0000000000000000  0.0000000000000000
  0.0000000000000000  0.0000000000000000  0.0000000000000000
  0.0000000000000000  0.0000000000000000  0.0000000000000000
  0.0000000000000000  0.0000000000000000  0.0000000000000000
  0.0000000000000000  0.0000000000000000  0.0000000000000000
  0.0000000000000000  0.0000000000000000  0.0000000000000000
  0.0000000000000000  0.0000000000000000  0.0000000000000000
  0.0000000000000000  0.0000000000000000  0.0000000000000000
  0.0000000000000000  0.0000000000000000  0.0000000000000000
  0.0000000000000000  0.0000000000000000  0.0000000000000000
  0.0000000000000000  0.0000000000000000  0.0000000000000000
  0.0000000000000000  0.0000000000000000  0.0000000000000000
  0.0000000000000000  0.0000000000000000  0.0000000000000000
  0.0000000000000000  0.0000000000000000  0.0000000000000000
  0.0000000000000000  0.0000000000000000  0.0000000000000000
  0.0000000000000000  0.0000000000000000  0.0000000000000000
  0.0000000000000000  0.0000000000000000  0.0000000000000000
  0.0000000000000000  0.0000000000000000  0.0000000000000000
  0.0000000000000000  0.0000000000000000  0.0000000000000000
  0.0000000000000000  0.0000000000000000  0.0000000000000000
  0.0000000000000000  0.0000000000000000  0.0000000000000000
  0.0000000000000000  0.0000000000000000  0.0000000000000000
  0.0000000000000000  0.0000000000000000  0.0000000000000000
  0.0000000000000000  0.0000000000000000  0.0000000000000000
  0.0000000000000000  0.0000000000000000  0.0000000000000000
  0.0000000000000000  0.0000000000000000  0.0000000000000000
  0.0000000000000000  0.0000000000000000  0.0000000000000000
