C  H  O  Pd
 1.0000000000000000
    12.2143708368485502    0.0000000000000000    0.0000000000000007
     0.0000000000000017   10.8116922467861709    0.0000000000000007
     0.0000000000000000    0.0000000000000000   30.6875744822424821
 C   H   O   Pd 
   2   3  66  64
Selective dynamics
Direct
  0.1224078557788481  0.6273100568397885  0.4792712195537337   T   T   T
  0.1143492359500642  1.0058150012109552  0.4731748276856230   T   T   T
  0.0446544417580257  0.6768542580483923  0.4726215549654245   T   T   T
  0.1279301115020494  0.6080525824776176  0.5147845010762321   T   T   T
  0.1920431391313934  0.6874134350914615  0.4697622669746426   T   T   T
  0.0000001489023768  0.6253641828117400  0.1990385236877962   F   F   F
  0.9989585628754006  0.3801917129726093  0.3964237350686469   T   T   T
  0.0000007785774361  0.8746366631057728  0.1990387117510663   F   F   F
 -0.0001207694089883  0.1236432352196558  0.3964500727976086   T   T   T
  0.2497786461787709  0.3759383958272997  0.2990962812150718   T   T   T
  0.0000000000000000  0.6250000000000000  0.0986326357059468   F   F   F
  0.7495404935414797  0.6215428970677960  0.3962392341346883   T   T   T
  0.0004840601517031  0.8761958009270471  0.2984802688480691   T   T   T
  0.2502629154766274  0.1262119967013128  0.2988870233619350   T   T   T
  0.7499786150900516  0.3751674685655527  0.2986016882467440   T   T   T
  0.4999816591153935  0.8752455398989133  0.2984542519150182   T   T   T
  0.4999892877535127  0.6255780219583684  0.2986158681983725   T   T   T
  1.0000344991511485  0.8801266190939616  0.3965066060160534   T   T   T
  0.0002628112371917  0.1262059640248654  0.2988439038441799   T   T   T
  1.0000039282834612  0.3760436950479711  0.2990632133688348   T   T   T
  0.5000269068148570  0.8803087425635995  0.3960518743699997   T   T   T
  0.9975860895453481  0.6235840436686230  0.3959540350464564   T   T   T
  0.0000003667133454  0.1253639748692094  0.1990386316366852   F   F   F
  0.0000002712633380  0.3746360819220366  0.1990386009744299   F   F   F
  0.2500000000000000  0.3750000000000000  0.0986326357059468   F   F   F
 -0.0000000000000000  0.8750000000000001  0.0986326357059468   F   F   F
  0.2499998638177366  0.3746354513558036  0.1990391137478614   F   F   F
  0.2500000000000000  0.1250000000000000  0.0986326357059468   F   F   F
  0.2500003118916107  0.1253643742758414  0.1990388468832426   F   F   F
  0.0000000000000000  0.3750000000000000  0.0986326357059468   F   F   F
  0.0000000000000000  0.1250000000000000  0.0986326357059468   F   F   F
  0.0340147058255731  1.0317609129880816  0.4906267341496466   T   T   T
  0.1266428719621019  0.5084890099192300  0.4600639609842737   T   T   T
 -0.0002616734958321  0.6263561296777412  0.2991538650984421   T   T   T
  0.5003232328234584  0.6215837400768414  0.3961853122469288   T   T   T
  0.2522820450987094  0.6237433415680567  0.3959126869853727   T   T   T
  0.7500000000000000  0.1250000000000000  0.0986326357059468   F   F   F
  0.2500000725690806  0.8746359244060554  0.1990388968624472   F   F   F
  0.2500000575081164  0.6253646356490544  0.1990388586176256   F   F   F
  0.2500270521285956  0.8761767233429097  0.2984290682459133   T   T   T
  0.2500961693253291  0.6262197942707524  0.2990974862975946   T   T   T
  0.2509356047777170  0.8797336941611088  0.3964514358791066   T   T   T
  0.7507723827756896  0.8802619535263742  0.3961487886068048   T   T   T
  0.2500000000000000  0.6250000000000000  0.0986326357059468   F   F   F
  0.5000000000000000  0.3750000000000000  0.0986326357059468   F   F   F
  0.5006460822880338  0.1214651869286466  0.3963341306325442   T   T   T
  0.4998097798215627  0.3797151443205210  0.3962891313638042   T   T   T
  0.5004493112831709  0.1256649563355298  0.2986170157988290   T   T   T
  0.4998570445547729  0.3751229352205793  0.2985771434298773   T   T   T
  0.4999998368048840  0.1253637532206347  0.1990388322615649   F   F   F
  0.7500000000000000  0.3750000000000000  0.0986326357059468   F   F   F
  0.5000000000000000  0.1250000000000000  0.0986326357059468   F   F   F
  0.2500000000000000  0.8750000000000001  0.0986326357059468   F   F   F
  0.4999999938080711  0.3746360868658646  0.1990385922315757   F   F   F
  0.5000000000000000  0.8750000000000001  0.0986326357059468   F   F   F
  0.2510991954058935  0.1240616851376958  0.3967749915678059   T   T   T
  0.7500000114023815  0.1253633646095497  0.1990386859845709   F   F   F
  0.7500004982174803  0.3746360905691121  0.1990382815073973   F   F   F
  0.2509344125480685  0.3802860622800119  0.3964461610530922   T   T   T
  0.7499771226408191  0.3796606323085598  0.3964033250381294   T   T   T
  0.7501628245478077  0.1215463226177914  0.3964123699003999   T   T   T
  0.7500000000000000  0.8750000000000001  0.0986326357059468   F   F   F
  0.7500427434802656  0.1257688809399907  0.2986603942944432   T   T   T
  0.7500002014178647  0.8746343896298040  0.1990386967425212   F   F   F
  0.7500002133337712  0.6253633161861426  0.1990388060063935   F   F   F
  0.7505451183964276  0.8752379165729284  0.2984949639485971   T   T   T
  0.7498431843765245  0.6256503698926336  0.2986397491864559   T   T   T
  0.5000001784867202  0.6253637522044813  0.1990389446145577   F   F   F
  0.4999995794704318  0.8746354974934157  0.1990386872989469   F   F   F
  0.7500000000000000  0.6250000000000000  0.0986326357059468   F   F   F
  0.5000000000000000  0.6250000000000000  0.0986326357059468   F   F   F
  0.0000000644614895  0.7499997055339565  0.1487767856559003   F   F   F
  0.4998842186085451  0.7501512051292454  0.2491977443594797   T   T   T
  0.1249501211031617  0.5028789804437601  0.3948642893902317   T   T   T
  0.6250000000000000  0.0000000000000000  0.0986326357059468   F   F   F
  0.3750527770976003  0.0015262982735099  0.3916013805577007   T   T   T
  0.2500002436688700  0.7499998371993483  0.1487767841964014   F   F   F
  0.2502758678032607  0.2516808948181081  0.3506994851902259   T   T   T
  0.2495241273061768  0.2505418056534910  0.2493590485569777   T   T   T
  0.2500000000000000  0.7500000000000000  0.0488797184302712   F   F   F
  0.3750000000000000  0.5000000000000000  0.0986326357059468   F   F   F
  0.5000000000000000  0.2500000000000000  0.0488797184302712   F   F   F
  0.5000000890861059  0.7499991063848873  0.1487764921061197   F   F   F
  0.6252975288606645  0.0002597020782099  0.2975686986379229   T   T   T
  0.6250000000000000  0.5000000000000000  0.0986326357059468   F   F   F
  0.5000000000000000  0.7500000000000000  0.0488797184302712   F   F   F
  0.0004089967265760  0.7502164294759192  0.2492498755014260   T   T   T
  0.6253955769482483  1.0006478578508748  0.3912767042979939   T   T   T
  0.5003548719175469  0.2504381472843761  0.3506283189559053   T   T   T
  0.1248890643008562  0.5012711385721651  0.2995468247013439   T   T   T
  0.5000497571102699  0.2501910228123516  0.2492185866371722   T   T   T
  0.9995939571424386  0.7522095314049252  0.3503582325393385   T   T   T
  0.6250011512513076  0.9999984342009582  0.1993176556340738   F   F   F
  0.5000000412290440  0.2500002002978380  0.1487764123606149   F   F   F
  0.1250000000000000  0.5000000000000000  0.0986326357059468   F   F   F
  0.0000000000000000  0.2500000000000000  0.0488797184302712   F   F   F
  0.3750013085010481  0.9999996425241101  0.1993178715196733   F   F   F
  0.1250005006673170  0.4999996619028680  0.1993179793341455   F   F   F
  0.3750004864510694  0.5000000253507203  0.1993181014519463   F   F   F
  0.0005155709148158  0.2506053378326439  0.2493324625356952   T   T   T
  0.2500001827845806  0.2500004790494265  0.1487770501254799   F   F   F
  0.7500488243701262  0.2502080077866736  0.2492354617175247   T   T   T
  0.7502424643126596  0.7501779281752164  0.2492098245632149   T   T   T
  0.1249992154568337  0.0000000621413549  0.1993179005561505   F   F   F
  0.7499999695802716  0.7499987873488344  0.1487766346932499   F   F   F
  0.8749990435797278  0.9999988729247118  0.1993176942245059   F   F   F
  0.7500000714258059  0.2500001333654533  0.1487767298788664   F   F   F
  0.8751769227235439  0.0009990472126373  0.2977028899212043   T   T   T
  0.1256990681640327  0.0020524560595150  0.3926895347067995   T   T   T
  0.8750000000000000  0.0000000000000000  0.0986326357059468   F   F   F
  0.7500000000000000  0.2500000000000000  0.0488797184302712   F   F   F
  0.1250000000000000  0.0000000000000000  0.0986326357059468   F   F   F
  0.0000000000000000  0.7500000000000000  0.0488797184302712   F   F   F
  0.8744058641827800  0.5007474187667321  0.3915130402618298   T   T   T
  0.6249138351653238  0.5004151320729588  0.3914227385653147   T   T   T
  0.8747686247260575  0.5007672910176674  0.2979707334696435   T   T   T
  0.2500000000000000  0.2500000000000000  0.0488797184302712   F   F   F
  0.0000001104490266  0.2500003692293262  0.1487770372582357   F   F   F
  0.7498904215068701  0.2505064350382467  0.3506926165351734   T   T   T
  0.2496415594270508  0.7502038827806158  0.2492318352910919   T   T   T
  0.3750253125478358  0.5006592209373996  0.2979209357086978   T   T   T
  0.3750000000000000  0.0000000000000000  0.0986326357059468   F   F   F
  0.2506884339720875  0.7522258183345709  0.3502897038299638   T   T   T
  0.3753850406684200  0.5008488422754837  0.3914800608109267   T   T   T
  0.6249078091095547  0.5003288726660229  0.2976728439596725   T   T   T
  0.1252748150543550  1.0013361957779423  0.2979942868448232   T   T   T
  0.6249997369785575  0.5000005243672183  0.1993177510521300   F   F   F
  0.9999391988273209  0.2517225586634274  0.3505759821091059   T   T   T
  0.8750000000000000  0.5000000000000000  0.0986326357059468   F   F   F
  0.7500000000000000  0.7500000000000000  0.0488797184302712   F   F   F
  0.8749998623887097  0.5000001886345932  0.1993177285951360   F   F   F
  0.8755482969700910  1.0015812047618025  0.3915559788926192   T   T   T
  0.5000682008221888  0.7507340309368273  0.3505242463587124   T   T   T
  0.3753276007273479  0.0009512219824287  0.2976796990784721   T   T   T
  0.7501837653983775  0.7507230135233920  0.3505760551892085   T   T   T
Cartesian
  0.0000000000000000  0.0000000000000000  0.0000000000000000
  0.0000000000000000  0.0000000000000000  0.0000000000000000
  0.0000000000000000  0.0000000000000000  0.0000000000000000
  0.0000000000000000  0.0000000000000000  0.0000000000000000
  0.0000000000000000  0.0000000000000000  0.0000000000000000
  0.0000000000000000  0.0000000000000000  0.0000000000000000
  0.0000000000000000  0.0000000000000000  0.0000000000000000
  0.0000000000000000  0.0000000000000000  0.0000000000000000
  0.0000000000000000  0.0000000000000000  0.0000000000000000
  0.0000000000000000  0.0000000000000000  0.0000000000000000
  0.0000000000000000  0.0000000000000000  0.0000000000000000
  0.0000000000000000  0.0000000000000000  0.0000000000000000
  0.0000000000000000  0.0000000000000000  0.0000000000000000
  0.0000000000000000  0.0000000000000000  0.0000000000000000
  0.0000000000000000  0.0000000000000000  0.0000000000000000
  0.0000000000000000  0.0000000000000000  0.0000000000000000
  0.0000000000000000  0.0000000000000000  0.0000000000000000
  0.0000000000000000  0.0000000000000000  0.0000000000000000
  0.0000000000000000  0.0000000000000000  0.0000000000000000
  0.0000000000000000  0.0000000000000000  0.0000000000000000
  0.0000000000000000  0.0000000000000000  0.0000000000000000
  0.0000000000000000  0.0000000000000000  0.0000000000000000
  0.0000000000000000  0.0000000000000000  0.0000000000000000
  0.0000000000000000  0.0000000000000000  0.0000000000000000
  0.0000000000000000  0.0000000000000000  0.0000000000000000
  0.0000000000000000  0.0000000000000000  0.0000000000000000
  0.0000000000000000  0.0000000000000000  0.0000000000000000
  0.0000000000000000  0.0000000000000000  0.0000000000000000
  0.0000000000000000  0.0000000000000000  0.0000000000000000
  0.0000000000000000  0.0000000000000000  0.0000000000000000
  0.0000000000000000  0.0000000000000000  0.0000000000000000
  0.0000000000000000  0.0000000000000000  0.0000000000000000
  0.0000000000000000  0.0000000000000000  0.0000000000000000
  0.0000000000000000  0.0000000000000000  0.0000000000000000
  0.0000000000000000  0.0000000000000000  0.0000000000000000
  0.0000000000000000  0.0000000000000000  0.0000000000000000
  0.0000000000000000  0.0000000000000000  0.0000000000000000
  0.0000000000000000  0.0000000000000000  0.0000000000000000
  0.0000000000000000  0.0000000000000000  0.0000000000000000
  0.0000000000000000  0.0000000000000000  0.0000000000000000
  0.0000000000000000  0.0000000000000000  0.0000000000000000
  0.0000000000000000  0.0000000000000000  0.0000000000000000
  0.0000000000000000  0.0000000000000000  0.0000000000000000
  0.0000000000000000  0.0000000000000000  0.0000000000000000
  0.0000000000000000  0.0000000000000000  0.0000000000000000
  0.0000000000000000  0.0000000000000000  0.0000000000000000
  0.0000000000000000  0.0000000000000000  0.0000000000000000
  0.0000000000000000  0.0000000000000000  0.0000000000000000
  0.0000000000000000  0.0000000000000000  0.0000000000000000
  0.0000000000000000  0.0000000000000000  0.0000000000000000
  0.0000000000000000  0.0000000000000000  0.0000000000000000
  0.0000000000000000  0.0000000000000000  0.0000000000000000
  0.0000000000000000  0.0000000000000000  0.0000000000000000
  0.0000000000000000  0.0000000000000000  0.0000000000000000
  0.0000000000000000  0.0000000000000000  0.0000000000000000
  0.0000000000000000  0.0000000000000000  0.0000000000000000
  0.0000000000000000  0.0000000000000000  0.0000000000000000
  0.0000000000000000  0.0000000000000000  0.0000000000000000
  0.0000000000000000  0.0000000000000000  0.0000000000000000
  0.0000000000000000  0.0000000000000000  0.0000000000000000
  0.0000000000000000  0.0000000000000000  0.0000000000000000
  0.0000000000000000  0.0000000000000000  0.0000000000000000
  0.0000000000000000  0.0000000000000000  0.0000000000000000
  0.0000000000000000  0.0000000000000000  0.0000000000000000
  0.0000000000000000  0.0000000000000000  0.0000000000000000
  0.0000000000000000  0.0000000000000000  0.0000000000000000
  0.0000000000000000  0.0000000000000000  0.0000000000000000
  0.0000000000000000  0.0000000000000000  0.0000000000000000
  0.0000000000000000  0.0000000000000000  0.0000000000000000
  0.0000000000000000  0.0000000000000000  0.0000000000000000
  0.0000000000000000  0.0000000000000000  0.0000000000000000
  0.0000000000000000  0.0000000000000000  0.0000000000000000
  0.0000000000000000  0.0000000000000000  0.0000000000000000
  0.0000000000000000  0.0000000000000000  0.0000000000000000
  0.0000000000000000  0.0000000000000000  0.0000000000000000
  0.0000000000000000  0.0000000000000000  0.0000000000000000
  0.0000000000000000  0.0000000000000000  0.0000000000000000
  0.0000000000000000  0.0000000000000000  0.0000000000000000
  0.0000000000000000  0.0000000000000000  0.0000000000000000
  0.0000000000000000  0.0000000000000000  0.0000000000000000
  0.0000000000000000  0.0000000000000000  0.0000000000000000
  0.0000000000000000  0.0000000000000000  0.0000000000000000
  0.0000000000000000  0.0000000000000000  0.0000000000000000
  0.0000000000000000  0.0000000000000000  0.0000000000000000
  0.0000000000000000  0.0000000000000000  0.0000000000000000
  0.0000000000000000  0.0000000000000000  0.0000000000000000
  0.0000000000000000  0.0000000000000000  0.0000000000000000
  0.0000000000000000  0.0000000000000000  0.0000000000000000
  0.0000000000000000  0.0000000000000000  0.0000000000000000
  0.0000000000000000  0.0000000000000000  0.0000000000000000
  0.0000000000000000  0.0000000000000000  0.0000000000000000
  0.0000000000000000  0.0000000000000000  0.0000000000000000
  0.0000000000000000  0.0000000000000000  0.0000000000000000
  0.0000000000000000  0.0000000000000000  0.0000000000000000
  0.0000000000000000  0.0000000000000000  0.0000000000000000
  0.0000000000000000  0.0000000000000000  0.0000000000000000
  0.0000000000000000  0.0000000000000000  0.0000000000000000
  0.0000000000000000  0.0000000000000000  0.0000000000000000
  0.0000000000000000  0.0000000000000000  0.0000000000000000
  0.0000000000000000  0.0000000000000000  0.0000000000000000
  0.0000000000000000  0.0000000000000000  0.0000000000000000
  0.0000000000000000  0.0000000000000000  0.0000000000000000
  0.0000000000000000  0.0000000000000000  0.0000000000000000
  0.0000000000000000  0.0000000000000000  0.0000000000000000
  0.0000000000000000  0.0000000000000000  0.0000000000000000
  0.0000000000000000  0.0000000000000000  0.0000000000000000
  0.0000000000000000  0.0000000000000000  0.0000000000000000
  0.0000000000000000  0.0000000000000000  0.0000000000000000
  0.0000000000000000  0.0000000000000000  0.0000000000000000
  0.0000000000000000  0.0000000000000000  0.0000000000000000
  0.0000000000000000  0.0000000000000000  0.0000000000000000
  0.0000000000000000  0.0000000000000000  0.0000000000000000
  0.0000000000000000  0.0000000000000000  0.0000000000000000
  0.0000000000000000  0.0000000000000000  0.0000000000000000
  0.0000000000000000  0.0000000000000000  0.0000000000000000
  0.0000000000000000  0.0000000000000000  0.0000000000000000
  0.0000000000000000  0.0000000000000000  0.0000000000000000
  0.0000000000000000  0.0000000000000000  0.0000000000000000
  0.0000000000000000  0.0000000000000000  0.0000000000000000
  0.0000000000000000  0.0000000000000000  0.0000000000000000
  0.0000000000000000  0.0000000000000000  0.0000000000000000
  0.0000000000000000  0.0000000000000000  0.0000000000000000
  0.0000000000000000  0.0000000000000000  0.0000000000000000
  0.0000000000000000  0.0000000000000000  0.0000000000000000
  0.0000000000000000  0.0000000000000000  0.0000000000000000
  0.0000000000000000  0.0000000000000000  0.0000000000000000
  0.0000000000000000  0.0000000000000000  0.0000000000000000
  0.0000000000000000  0.0000000000000000  0.0000000000000000
  0.0000000000000000  0.0000000000000000  0.0000000000000000
  0.0000000000000000  0.0000000000000000  0.0000000000000000
  0.0000000000000000  0.0000000000000000  0.0000000000000000
  0.0000000000000000  0.0000000000000000  0.0000000000000000
  0.0000000000000000  0.0000000000000000  0.0000000000000000
  0.0000000000000000  0.0000000000000000  0.0000000000000000
  0.0000000000000000  0.0000000000000000  0.0000000000000000
