C  H  O  Pd
 1.0000000000000000
    11.0046904376558210    0.0000000000000000    0.0000000000000000
     0.0000000000000000   11.0046904376558210    0.0000000000000000
     0.0000000000000000    0.0000000000000000   27.7814912333251840
 C   H   O   Pd 
   2   3   2  80
Selective dynamics
Direct
  0.1236214348544436 -0.0275688077716754  0.3909309145219615   T   T   T
  0.1373393953932258  0.3237487601503840  0.4353543618677354   T   T   T
  0.0546978437310417  0.3139098506546702  0.4576065473476176   T   T   T
  0.1481830678029230  0.4202993177756491  0.4244258874054457   T   T   T
  0.2174826412439527  0.2956402839057025  0.4566808761478779   T   T   T
  0.1229260580802840 -0.0424554511090772  0.4332811689054612   T   T   T
  0.1275921489001829  0.2438536622506546  0.3949956681966541   T   T   T
  0.7500000000000000  0.5000000000000000  0.0539927820073487   F   F   F
  0.1250000000000000  0.3750000000000000  0.1240168419828507   F   F   F
  0.8750000000000000  0.1250000000000000  0.1240168419828507   F   F   F
  0.6250000000000001  0.1250000000000000  0.1240168419828507   F   F   F
  0.0000000000000000  0.5000000000000000  0.0539927820073487   F   F   F
  0.2500000000000000  0.0000000000000000  0.0539927820073487   F   F   F
  0.5000000000000000  0.0000000000000000  0.0539927820073487   F   F   F
  0.0000000000000000  0.7500000000000000  0.0539927820073487   F   F   F
  0.7500000000000000  0.0000000000000000  0.0539927820073487   F   F   F
  0.2498759723541497  0.2497479655241930  0.1954003464081450   F   F   F
  0.5000000000000000  0.2500000000000000  0.0539927820073487   F   F   F
  0.7500000000000000  0.2500000000000000  0.0539927820073487   F   F   F
  0.2500000000000000  0.5000000000000000  0.0539927820073487   F   F   F
  0.3750000000000000  0.1250000000000000  0.1240168419828507   F   F   F
  0.5000000000000000  0.5000000000000000  0.0539927820073487   F   F   F
  0.0000000000000000  0.2500000000000000  0.0539927820073487   F   F   F
  0.2500000000000000  0.2500000000000000  0.0539927820073487   F   F   F
 -0.0001773197013211  0.2495797339683225  0.1954233291108599   F   F   F
  0.2500000000000000  0.7500000000000000  0.0539927820073487   F   F   F
  0.7484432202123075  0.7502392079840192  0.3388441075236178   T   T   T
  0.4987864195010794  0.7509774230122958  0.3387210171635648   T   T   T
  0.3750000000000000  0.3750000000000000  0.1240168419828507   F   F   F
  0.6250000000000001  0.3750000000000000  0.1240168419828507   F   F   F
  0.8750000000000000  0.3750000000000000  0.1240168419828507   F   F   F
  0.1250000000000000  0.6250000000000001  0.1240168419828507   F   F   F
  0.3750000000000000  0.6250000000000001  0.1240168419828507   F   F   F
  0.6250000000000001  0.6250000000000001  0.1240168419828507   F   F   F
  0.8750000000000000  0.6250000000000001  0.1240168419828507   F   F   F
  0.1250000000000000  0.8750000000000000  0.1240168419828507   F   F   F
  0.3750000000000000  0.8750000000000000  0.1240168419828507   F   F   F
  0.6250000000000001  0.8750000000000000  0.1240168419828507   F   F   F
  0.8750000000000000  0.8750000000000000  0.1240168419828507   F   F   F
 -0.0003471013484263  0.0001373683589265  0.1955318560580918   T   T   T
  0.2496583287143742  0.0004732552734426  0.1955267961306214   T   T   T
  0.7495532843867848  0.0002248446809773  0.1957028254610519   T   T   T
  0.4989865669735848  0.0005525483004551  0.1956501155090062   T   T   T
  0.0000000000000000  0.0000000000000000  0.0539927820073487   F   F   F
  0.1250000000000000  0.1250000000000000  0.1240168419828507   F   F   F
  0.2492649716268864  0.4996105297954176  0.1955339841747804   T   T   T
  0.3729464275620774  0.1257251967856154  0.2680532226499500   T   T   T
  0.4990111494392127  0.4999155231171539  0.1956075126451655   T   T   T
  0.7490576135997087  0.4998799171189312  0.1954756614896106   F   F   F
 -0.0012222439881769  0.7500775386111375  0.1954423290378446   F   F   F
  0.2493843980587289  0.7504906213072595  0.1953551112554698   F   F   F
  0.4992286990929505  0.7500382730080376  0.1954184225584113   F   F   F
  0.7487875120994635  0.7497948021081574  0.1954601140400940   F   F   F
  0.8726587001929248  0.6249243025052101  0.2668987266635383   T   T   T
  0.1242878235438594  0.1253448769917960  0.2674955577204264   T   T   T
  0.6229947553295410  0.6255232915489150  0.2669453733044095   T   T   T
  0.8759236276318789  0.1250493899333673  0.2683834500364882   T   T   T
  0.1237640181464844  0.3745079008476842  0.2670199226328646   T   T   T
  0.3735467399751358  0.3740186517580442  0.2674897601900701   T   T   T
  0.6240387961995332  0.3755099953765116  0.2669391191612743   T   T   T
  0.8743015297881672  0.3733150559009012  0.2676404808615632   T   T   T
  0.1231387692662518  0.6253008502376304  0.2663950589033554   T   T   T
  0.3736611442742129  0.6253576123720085  0.2667491343279621   T   T   T
  0.6246240073079353  0.1256072674949172  0.2670450142248532   T   T   T
  0.7500000000000000  0.7500000000000000  0.0539927820073487   F   F   F
  0.3735855257478313  0.8761615126714188  0.2671000380794634   T   T   T
 -0.0018453098595808  0.7472152656794547  0.3385320756152803   T   T   T
  0.4997823848950744  0.2502783424277318  0.1955699508956083   T   T   T
  0.7499905991644318  0.2500329087012453  0.1955203420309613   T   T   T
 -0.0013368453833396  0.4995088461322997  0.1954723684196599   F   F   F
  0.2561877537435695  0.2525024883132539  0.3400938052065717   T   T   T
  0.6234468582619433  0.8753097157131671  0.2668981410077673   T   T   T
  0.8738538584336573  0.8757181421858956  0.2671902107336983   T   T   T
 -0.0036358134941061 -0.0032450249917084  0.3416791874608140   T   T   T
  0.2513399961331107 -0.0022789617559585  0.3417343162347622   T   T   T
  0.2487858276416383  0.7482845034493222  0.3384437467135160   T   T   T
  0.4989582479609992  0.0007195860877168  0.3387712741892684   T   T   T
 -0.0056937262292385  0.2533832236498031  0.3411328172488461   T   T   T
  0.5023195465865079  0.2504032521791933  0.3388986070792133   T   T   T
  0.1238186419120807  0.8750960206175106  0.2669221501727769   T   T   T
  0.7476612314292420  0.2507011678357158  0.3391022296751786   T   T   T
 -0.0035504579295320  0.5018868133673131  0.3382089372916609   T   T   T
  0.2471060473740979  0.5020808790260208  0.3384105881211514   T   T   T
  0.4967000052533085  0.5007321823205129  0.3388847356506454   T   T   T
  0.7463273866446951  0.5005605209065005  0.3388584803734158   T   T   T
  0.7483581614680574  0.0002668615664395  0.3390170247893611   T   T   T
  0.5000000000000000  0.7500000000000000  0.0539927820073487   F   F   F
Cartesian
  0.0000000000000000  0.0000000000000000  0.0000000000000000
  0.0000000000000000  0.0000000000000000  0.0000000000000000
  0.0000000000000000  0.0000000000000000  0.0000000000000000
  0.0000000000000000  0.0000000000000000  0.0000000000000000
  0.0000000000000000  0.0000000000000000  0.0000000000000000
  0.0000000000000000  0.0000000000000000  0.0000000000000000
  0.0000000000000000  0.0000000000000000  0.0000000000000000
  0.0000000000000000  0.0000000000000000  0.0000000000000000
  0.0000000000000000  0.0000000000000000  0.0000000000000000
  0.0000000000000000  0.0000000000000000  0.0000000000000000
  0.0000000000000000  0.0000000000000000  0.0000000000000000
  0.0000000000000000  0.0000000000000000  0.0000000000000000
  0.0000000000000000  0.0000000000000000  0.0000000000000000
  0.0000000000000000  0.0000000000000000  0.0000000000000000
  0.0000000000000000  0.0000000000000000  0.0000000000000000
  0.0000000000000000  0.0000000000000000  0.0000000000000000
  0.0000000000000000  0.0000000000000000  0.0000000000000000
  0.0000000000000000  0.0000000000000000  0.0000000000000000
  0.0000000000000000  0.0000000000000000  0.0000000000000000
  0.0000000000000000  0.0000000000000000  0.0000000000000000
  0.0000000000000000  0.0000000000000000  0.0000000000000000
  0.0000000000000000  0.0000000000000000  0.0000000000000000
  0.0000000000000000  0.0000000000000000  0.0000000000000000
  0.0000000000000000  0.0000000000000000  0.0000000000000000
  0.0000000000000000  0.0000000000000000  0.0000000000000000
  0.0000000000000000  0.0000000000000000  0.0000000000000000
  0.0000000000000000  0.0000000000000000  0.0000000000000000
  0.0000000000000000  0.0000000000000000  0.0000000000000000
  0.0000000000000000  0.0000000000000000  0.0000000000000000
  0.0000000000000000  0.0000000000000000  0.0000000000000000
  0.0000000000000000  0.0000000000000000  0.0000000000000000
  0.0000000000000000  0.0000000000000000  0.0000000000000000
  0.0000000000000000  0.0000000000000000  0.0000000000000000
  0.0000000000000000  0.0000000000000000  0.0000000000000000
  0.0000000000000000  0.0000000000000000  0.0000000000000000
  0.0000000000000000  0.0000000000000000  0.0000000000000000
  0.0000000000000000  0.0000000000000000  0.0000000000000000
  0.0000000000000000  0.0000000000000000  0.0000000000000000
  0.0000000000000000  0.0000000000000000  0.0000000000000000
  0.0000000000000000  0.0000000000000000  0.0000000000000000
  0.0000000000000000  0.0000000000000000  0.0000000000000000
  0.0000000000000000  0.0000000000000000  0.0000000000000000
  0.0000000000000000  0.0000000000000000  0.0000000000000000
  0.0000000000000000  0.0000000000000000  0.0000000000000000
  0.0000000000000000  0.0000000000000000  0.0000000000000000
  0.0000000000000000  0.0000000000000000  0.0000000000000000
  0.0000000000000000  0.0000000000000000  0.0000000000000000
  0.0000000000000000  0.0000000000000000  0.0000000000000000
  0.0000000000000000  0.0000000000000000  0.0000000000000000
  0.0000000000000000  0.0000000000000000  0.0000000000000000
  0.0000000000000000  0.0000000000000000  0.0000000000000000
  0.0000000000000000  0.0000000000000000  0.0000000000000000
  0.0000000000000000  0.0000000000000000  0.0000000000000000
  0.0000000000000000  0.0000000000000000  0.0000000000000000
  0.0000000000000000  0.0000000000000000  0.0000000000000000
  0.0000000000000000  0.0000000000000000  0.0000000000000000
  0.0000000000000000  0.0000000000000000  0.0000000000000000
  0.0000000000000000  0.0000000000000000  0.0000000000000000
  0.0000000000000000  0.0000000000000000  0.0000000000000000
  0.0000000000000000  0.0000000000000000  0.0000000000000000
  0.0000000000000000  0.0000000000000000  0.0000000000000000
  0.0000000000000000  0.0000000000000000  0.0000000000000000
  0.0000000000000000  0.0000000000000000  0.0000000000000000
  0.0000000000000000  0.0000000000000000  0.0000000000000000
  0.0000000000000000  0.0000000000000000  0.0000000000000000
  0.0000000000000000  0.0000000000000000  0.0000000000000000
  0.0000000000000000  0.0000000000000000  0.0000000000000000
  0.0000000000000000  0.0000000000000000  0.0000000000000000
  0.0000000000000000  0.0000000000000000  0.0000000000000000
  0.0000000000000000  0.0000000000000000  0.0000000000000000
  0.0000000000000000  0.0000000000000000  0.0000000000000000
  0.0000000000000000  0.0000000000000000  0.0000000000000000
  0.0000000000000000  0.0000000000000000  0.0000000000000000
  0.0000000000000000  0.0000000000000000  0.0000000000000000
  0.0000000000000000  0.0000000000000000  0.0000000000000000
  0.0000000000000000  0.0000000000000000  0.0000000000000000
  0.0000000000000000  0.0000000000000000  0.0000000000000000
  0.0000000000000000  0.0000000000000000  0.0000000000000000
  0.0000000000000000  0.0000000000000000  0.0000000000000000
  0.0000000000000000  0.0000000000000000  0.0000000000000000
  0.0000000000000000  0.0000000000000000  0.0000000000000000
  0.0000000000000000  0.0000000000000000  0.0000000000000000
  0.0000000000000000  0.0000000000000000  0.0000000000000000
  0.0000000000000000  0.0000000000000000  0.0000000000000000
  0.0000000000000000  0.0000000000000000  0.0000000000000000
  0.0000000000000000  0.0000000000000000  0.0000000000000000
  0.0000000000000000  0.0000000000000000  0.0000000000000000
