C  H  O  Pd
 1.0000000000000000
    12.3034736924171124    0.0000000000000000    0.0000000000000000
     0.0000000000000000   12.3034736924171142    0.0000000000000000
     0.0000000000000000    0.0000000000000000   29.1654207465942434
 C   H   O   Pd 
   2   3  18  96
Selective dynamics
Direct
  0.4147582101240527  0.8113902024084415  0.4382650795449852   T   T   T
  0.0603582232285172  0.8066473654205906  0.3832661561391551   T   T   T
  0.4164032933512911  0.7234194381234659  0.4466524351768272   T   T   T
  0.4510198758643425  0.8575275136738095  0.4671957318075314   T   T   T
  0.3284452597566507  0.8372856987238269  0.4350433755343706   T   T   T
  0.4788840280610071  0.8380080284835254  0.3996996266515552   T   T   T
  0.0628093256371407  0.8290062193317835  0.4225534128211592   T   T   T
  0.6842249104290541  0.1361261689160422  0.3613926109387840   T   T   T
  0.1850934813201994  0.6293739735530967  0.3636602748059873   T   T   T
  0.4384590433714534  0.1333207402278322  0.3619047707087755   T   T   T
  0.4343133231879595  0.4383387479310475  0.3210682563257237   T   T   T
  0.6884429011147853  0.9410775850205706  0.3209770798154502   T   T   T
  0.1853529920024818  0.1364046581740951  0.3616443955090939   T   T   T
  0.1868033021735235  0.4413504653926682  0.3197431934326789   T   T   T
  0.9360336226706334  0.6261448944287153  0.3659731163105074   T   T   T
  0.6860416482451734  0.4426910556227202  0.3201452435996189   T   T   T
  0.9331037862721865  0.4365746327343366  0.3214429456019043   T   T   T
  0.9374202374733628  0.1335163248059108  0.3629829717312348   T   T   T
  0.9333182306479223  0.9388425330584145  0.3213932077420740   T   T   T
  0.6861456694594000  0.6345238293525229  0.3622408926324062   T   T   T
  0.4324720802685952  0.9385026372978341  0.3197714514595351   T   T   T
  0.1873666181452790  0.9436809405167880  0.3205697196609374   T   T   T
  0.4352117102040041  0.6301676290439183  0.3644058697123538   T   T   T
  0.9021232788119037  0.9018036990235293  0.2540515353326550   T   T   T
  0.2512477376361753  0.8486482714252510  0.1863430332861592   T   T   T
  0.0606004528359999  0.0427547901227407  0.3395677135581816   T   T   T
  0.1507236091547503  0.1489864169829936  0.1853656493630883   F   F   F
  0.9500000000000028  0.2500000000000000  0.0514307684100572   F   F   F
  0.8500000000000014  0.0499999999999972  0.0514307684100572   F   F   F
  0.2999999999999972  0.2000000000000028  0.1181313319610595   F   F   F
  0.1499999999999986  0.1499999999999986  0.0514307684100572   F   F   F
  0.5598571312942280  0.5418404789763139  0.3400290397335805   T   T   T
  0.8485330413376032  0.0512636254534289  0.1852339871257567   F   F   F
  0.9964653153855081  0.1048889401089428  0.2532029885330251   T   T   T
  0.1000000000000014  0.2999999999999972  0.1181313319610595   F   F   F
  0.1886413908369051  0.2810048182524360  0.3344097416309014   T   T   T
  0.9486127127564162  0.2506768571014975  0.1843632683220324   F   F   F
  0.0954871156877899  0.2961336756049737  0.2520871938926286   T   T   T
  0.0499999999999972  0.4500000000000027  0.0514307684100572   F   F   F
  0.2000000000000028  0.5000000000000000  0.1181313319610595   F   F   F
  0.0491193131827514  0.4512444611448465  0.1844626448581111   F   F   F
  0.0000000000000000  0.1000000000000014  0.1181313319610595   F   F   F
  0.3113914511258798  0.5422474902441863  0.3398566850739921   T   T   T
  0.1507252829162628  0.6489864416498848  0.1853659281879895   F   F   F
  0.3485341556527256  0.0512641898857512  0.1852337169709379   F   F   F
  0.9385032860073821  0.7755591500446920  0.3391023366153863   T   T   T
  0.4014152217308914  0.9011315078293100  0.2533932277467875   T   T   T
  0.1857995222162105  0.7811759793096553  0.3392540667001667   T   T   T
  0.3120960120335093  0.0439760541250791  0.3399932627664986   T   T   T
  0.8112483819337025  0.5416330077680427  0.3405020923252483   T   T   T
  0.6869377449391332  0.2814082882187383  0.3344733405502341   T   T   T
  0.9370657540894891  0.2736311233560492  0.3319576986001040   T   T   T
  0.4344816541888396  0.7781453786573875  0.3380150659073696   T   T   T
  0.0596519786860554  0.5370402468724342  0.3407087253688273   T   T   T
  0.5000000000000000  0.1000000000000014  0.1181313319610595   F   F   F
  0.6916999316837263  0.7798828340972463  0.3353817234816495   T   T   T
  0.8116037001799671  0.0440106158426463  0.3403163418111746   T   T   T
  0.8999999999999986  0.8999999999999986  0.1181313319610595   F   F   F
  0.9011366719814946  0.4038548600979537  0.2536190159097799   T   T   T
  0.2508192108222004  0.3491892692199133  0.1863386529615284   T   T   T
  0.2500000000000000  0.3500000000000014  0.0514307684100572   F   F   F
  0.2500000000000000  0.8500000000000014  0.0514307684100572   F   F   F
  0.4388317250498795  0.2743064740169543  0.3313642142279569   T   T   T
  0.4500000000000028  0.2500000000000000  0.0514307684100572   F   F   F
  0.4969499286872525  0.1051916199021748  0.2534885589789309   T   T   T
  0.5607517799648051  0.0390464993316965  0.3401943506130278   T   T   T
  0.1952026566844889  0.5005799020485509  0.2537256907835182   T   T   T
  0.8999999999999986  0.3999999999999986  0.1181313319610595   F   F   F
  0.3500000000000014  0.5499999999999972  0.0514307684100572   F   F   F
  0.1499999999999986  0.6499999999999986  0.0514307684100572   F   F   F
  0.5966742341075423  0.7964538898983466  0.2526210078364982   T   T   T
  0.7500000000000000  0.8500000000000014  0.0514307684100572   F   F   F
  0.7995758969430545  0.7013335951725410  0.2581139771083360   T   T   T
  0.2999999999999972  0.7000000000000028  0.1181313319610595   F   F   F
  0.6000000000000014  0.2999999999999972  0.1181313319610595   F   F   F
  0.7999999999999972  0.7000000000000028  0.1181313319610595   F   F   F
  0.6965489516179597 -0.0018635535351356  0.2542800593839183   T   T   T
  0.5491182374295687  0.9512475927721618  0.1844623188205349   F   F   F
  0.7000000000000027  0.0000000000000000  0.1181313319610595   F   F   F
  0.9500000000000028  0.7500000000000000  0.0514307684100572   F   F   F
  0.5499999999999972  0.9500000000000028  0.0514307684100572   F   F   F
  0.4486144413896602  0.7506743341769924  0.1843622545089304   F   F   F
  0.6499999999999986  0.6499999999999986  0.0514307684100572   F   F   F
  0.6000000000000014  0.7999999999999972  0.1181313319610595   F   F   F
  0.5499999999999972  0.4500000000000027  0.0514307684100572   F   F   F
  0.4486122021981009  0.2506766379109669  0.1843629363752118   F   F   F
  0.5957779687163016  0.2968289423554035  0.2518471016441429   T   T   T
  0.5000000000000000  0.6000000000000014  0.1181313319610595   F   F   F
  0.3485320028910852  0.5512631916718084  0.1852336449463447   F   F   F
  0.4965085467926282  0.6066971431050980  0.2535269591715584   T   T   T
  0.4500000000000028  0.7500000000000000  0.0514307684100572   F   F   F
  0.6507236918031661  0.6489854869807887  0.1853661340816861   F   F   F
  0.2980319771407364  0.1997499898287331  0.2574136907247876   T   T   T
  0.0491177240126065  0.9512405474851490  0.1844615703293516   F   F   F
  0.5491175178526683  0.4512445656232251  0.1844618875770611   F   F   F
  0.3500000000000014  0.0499999999999972  0.0514307684100572   F   F   F
  0.2990621460142189  0.7016712405421311  0.2589576681570971   T   T   T
  0.7511686759202133  0.8490527534463821  0.1864428164721001   T   T   T
  0.1961900482344695 -0.0017137270418595  0.2537334882708910   T   T   T
  0.2000000000000028  0.0000000000000000  0.1181313319610595   F   F   F
  0.0974556136228520  0.7967461418853483  0.2523792657959679   T   T   T
  0.9486106854241280  0.7506756416198153  0.1843625136127240   F   F   F
  0.1000000000000014  0.7999999999999972  0.1181313319610595   F   F   F
  0.3999999999999986  0.8999999999999986  0.1181313319610595   F   F   F
  0.9970338345737546  0.6063658904003199  0.2537504228104568   T   T   T
  0.7000000000000027  0.5000000000000000  0.1181313319610595   F   F   F
  0.8485338373677122  0.5512634687110046  0.1852339858465592   F   F   F
  0.8500000000000014  0.5499999999999972  0.0514307684100572   F   F   F
  0.4006971864989716  0.4035960918508489  0.2535324175234778   T   T   T
  0.7508576259921813  0.3494651865575737  0.1862892356879660   T   T   T
  0.3999999999999986  0.3999999999999986  0.1181313319610595   F   F   F
  0.7500000000000000  0.3500000000000014  0.0514307684100572   F   F   F
  0.7981605756386312  0.2002911659980931  0.2574309070933608   T   T   T
  0.6507246110173561  0.1489888581776777  0.1853660239556655   F   F   F
  0.7999999999999972  0.2000000000000028  0.1181313319610595   F   F   F
  0.6499999999999986  0.1499999999999986  0.0514307684100572   F   F   F
  0.6957765858819578  0.5007428064774246  0.2537943929399619   T   T   T
  0.0000000000000000  0.6000000000000014  0.1181313319610595   F   F   F
  0.0499999999999972  0.9500000000000028  0.0514307684100572   F   F   F
Cartesian
  0.0000000000000000  0.0000000000000000  0.0000000000000000
  0.0000000000000000  0.0000000000000000  0.0000000000000000
  0.0000000000000000  0.0000000000000000  0.0000000000000000
  0.0000000000000000  0.0000000000000000  0.0000000000000000
  0.0000000000000000  0.0000000000000000  0.0000000000000000
  0.0000000000000000  0.0000000000000000  0.0000000000000000
  0.0000000000000000  0.0000000000000000  0.0000000000000000
  0.0000000000000000  0.0000000000000000  0.0000000000000000
  0.0000000000000000  0.0000000000000000  0.0000000000000000
  0.0000000000000000  0.0000000000000000  0.0000000000000000
  0.0000000000000000  0.0000000000000000  0.0000000000000000
  0.0000000000000000  0.0000000000000000  0.0000000000000000
  0.0000000000000000  0.0000000000000000  0.0000000000000000
  0.0000000000000000  0.0000000000000000  0.0000000000000000
  0.0000000000000000  0.0000000000000000  0.0000000000000000
  0.0000000000000000  0.0000000000000000  0.0000000000000000
  0.0000000000000000  0.0000000000000000  0.0000000000000000
  0.0000000000000000  0.0000000000000000  0.0000000000000000
  0.0000000000000000  0.0000000000000000  0.0000000000000000
  0.0000000000000000  0.0000000000000000  0.0000000000000000
  0.0000000000000000  0.0000000000000000  0.0000000000000000
  0.0000000000000000  0.0000000000000000  0.0000000000000000
  0.0000000000000000  0.0000000000000000  0.0000000000000000
  0.0000000000000000  0.0000000000000000  0.0000000000000000
  0.0000000000000000  0.0000000000000000  0.0000000000000000
  0.0000000000000000  0.0000000000000000  0.0000000000000000
  0.0000000000000000  0.0000000000000000  0.0000000000000000
  0.0000000000000000  0.0000000000000000  0.0000000000000000
  0.0000000000000000  0.0000000000000000  0.0000000000000000
  0.0000000000000000  0.0000000000000000  0.0000000000000000
  0.0000000000000000  0.0000000000000000  0.0000000000000000
  0.0000000000000000  0.0000000000000000  0.0000000000000000
  0.0000000000000000  0.0000000000000000  0.0000000000000000
  0.0000000000000000  0.0000000000000000  0.0000000000000000
  0.0000000000000000  0.0000000000000000  0.0000000000000000
  0.0000000000000000  0.0000000000000000  0.0000000000000000
  0.0000000000000000  0.0000000000000000  0.0000000000000000
  0.0000000000000000  0.0000000000000000  0.0000000000000000
  0.0000000000000000  0.0000000000000000  0.0000000000000000
  0.0000000000000000  0.0000000000000000  0.0000000000000000
  0.0000000000000000  0.0000000000000000  0.0000000000000000
  0.0000000000000000  0.0000000000000000  0.0000000000000000
  0.0000000000000000  0.0000000000000000  0.0000000000000000
  0.0000000000000000  0.0000000000000000  0.0000000000000000
  0.0000000000000000  0.0000000000000000  0.0000000000000000
  0.0000000000000000  0.0000000000000000  0.0000000000000000
  0.0000000000000000  0.0000000000000000  0.0000000000000000
  0.0000000000000000  0.0000000000000000  0.0000000000000000
  0.0000000000000000  0.0000000000000000  0.0000000000000000
  0.0000000000000000  0.0000000000000000  0.0000000000000000
  0.0000000000000000  0.0000000000000000  0.0000000000000000
  0.0000000000000000  0.0000000000000000  0.0000000000000000
  0.0000000000000000  0.0000000000000000  0.0000000000000000
  0.0000000000000000  0.0000000000000000  0.0000000000000000
  0.0000000000000000  0.0000000000000000  0.0000000000000000
  0.0000000000000000  0.0000000000000000  0.0000000000000000
  0.0000000000000000  0.0000000000000000  0.0000000000000000
  0.0000000000000000  0.0000000000000000  0.0000000000000000
  0.0000000000000000  0.0000000000000000  0.0000000000000000
  0.0000000000000000  0.0000000000000000  0.0000000000000000
  0.0000000000000000  0.0000000000000000  0.0000000000000000
  0.0000000000000000  0.0000000000000000  0.0000000000000000
  0.0000000000000000  0.0000000000000000  0.0000000000000000
  0.0000000000000000  0.0000000000000000  0.0000000000000000
  0.0000000000000000  0.0000000000000000  0.0000000000000000
  0.0000000000000000  0.0000000000000000  0.0000000000000000
  0.0000000000000000  0.0000000000000000  0.0000000000000000
  0.0000000000000000  0.0000000000000000  0.0000000000000000
  0.0000000000000000  0.0000000000000000  0.0000000000000000
  0.0000000000000000  0.0000000000000000  0.0000000000000000
  0.0000000000000000  0.0000000000000000  0.0000000000000000
  0.0000000000000000  0.0000000000000000  0.0000000000000000
  0.0000000000000000  0.0000000000000000  0.0000000000000000
  0.0000000000000000  0.0000000000000000  0.0000000000000000
  0.0000000000000000  0.0000000000000000  0.0000000000000000
  0.0000000000000000  0.0000000000000000  0.0000000000000000
  0.0000000000000000  0.0000000000000000  0.0000000000000000
  0.0000000000000000  0.0000000000000000  0.0000000000000000
  0.0000000000000000  0.0000000000000000  0.0000000000000000
  0.0000000000000000  0.0000000000000000  0.0000000000000000
  0.0000000000000000  0.0000000000000000  0.0000000000000000
  0.0000000000000000  0.0000000000000000  0.0000000000000000
  0.0000000000000000  0.0000000000000000  0.0000000000000000
  0.0000000000000000  0.0000000000000000  0.0000000000000000
  0.0000000000000000  0.0000000000000000  0.0000000000000000
  0.0000000000000000  0.0000000000000000  0.0000000000000000
  0.0000000000000000  0.0000000000000000  0.0000000000000000
  0.0000000000000000  0.0000000000000000  0.0000000000000000
  0.0000000000000000  0.0000000000000000  0.0000000000000000
  0.0000000000000000  0.0000000000000000  0.0000000000000000
  0.0000000000000000  0.0000000000000000  0.0000000000000000
  0.0000000000000000  0.0000000000000000  0.0000000000000000
  0.0000000000000000  0.0000000000000000  0.0000000000000000
  0.0000000000000000  0.0000000000000000  0.0000000000000000
  0.0000000000000000  0.0000000000000000  0.0000000000000000
  0.0000000000000000  0.0000000000000000  0.0000000000000000
  0.0000000000000000  0.0000000000000000  0.0000000000000000
  0.0000000000000000  0.0000000000000000  0.0000000000000000
  0.0000000000000000  0.0000000000000000  0.0000000000000000
  0.0000000000000000  0.0000000000000000  0.0000000000000000
  0.0000000000000000  0.0000000000000000  0.0000000000000000
  0.0000000000000000  0.0000000000000000  0.0000000000000000
  0.0000000000000000  0.0000000000000000  0.0000000000000000
  0.0000000000000000  0.0000000000000000  0.0000000000000000
  0.0000000000000000  0.0000000000000000  0.0000000000000000
  0.0000000000000000  0.0000000000000000  0.0000000000000000
  0.0000000000000000  0.0000000000000000  0.0000000000000000
  0.0000000000000000  0.0000000000000000  0.0000000000000000
  0.0000000000000000  0.0000000000000000  0.0000000000000000
  0.0000000000000000  0.0000000000000000  0.0000000000000000
  0.0000000000000000  0.0000000000000000  0.0000000000000000
  0.0000000000000000  0.0000000000000000  0.0000000000000000
  0.0000000000000000  0.0000000000000000  0.0000000000000000
  0.0000000000000000  0.0000000000000000  0.0000000000000000
  0.0000000000000000  0.0000000000000000  0.0000000000000000
  0.0000000000000000  0.0000000000000000  0.0000000000000000
  0.0000000000000000  0.0000000000000000  0.0000000000000000
  0.0000000000000000  0.0000000000000000  0.0000000000000000
  0.0000000000000000  0.0000000000000000  0.0000000000000000
