C  H  O  Pd
 1.0000000000000000
    12.2143708368485502    0.0000000000000000    0.0000000000000007
     0.0000000000000017   10.8116922467861709    0.0000000000000007
     0.0000000000000000    0.0000000000000000   30.6875744822424821
 C   H   O   Pd 
   1   3  65  64
Selective dynamics
Direct
  0.2076674121031022  0.5394358989740817  0.4783411457178507   T   T   T
  0.2239486764599051  0.6386955344510026  0.4727995251069690   T   T   T
  0.1870515863381835  0.5255151859108884  0.5131783925300577   T   T   T
  0.2831056785507565  0.4851043910059495  0.4716979029731337   T   T   T
  0.5000000000000000  0.1250000000000000  0.0986326357059468   F   F   F
  0.7500000000000000  0.1250000000000000  0.0986326357059468   F   F   F
  0.5016690859429758  0.1250619340479160  0.2980336732230742   T   T   T
  0.5015685469145088  0.3805064972051532  0.3944128118846332   T   T   T
  0.5014449397083945  0.1192013249702851  0.3943608759537885   T   T   T
  0.4999998368048820  0.1253637532206326  0.1990388322615644   F   F   F
  0.5000000000000000  0.3750000000000000  0.0986326357059468   F   F   F
  0.2500000000000000  0.8750000000000001  0.0986326357059468   F   F   F
  0.2500000000000000  0.6250000000000000  0.0986326357059468   F   F   F
  0.7514667314644370  0.8806316172750132  0.3942239867418689   T   T   T
  0.2512863860375403  0.8803676112935559  0.3941695761812963   T   T   T
  0.2513062743472468  0.6246060583901054  0.2982656183384235   T   T   T
  0.2515586050748699  0.8754409634703190  0.2977073802346640   T   T   T
  0.4999999938080677  0.3746360868658627  0.1990385922315738   F   F   F
  0.5015308038204037  0.3749131233769885  0.2979779667628414   T   T   T
  0.2513056739109079  0.1191965877132882  0.3940272393952001   T   T   T
  0.2500000575081174  0.6253646356490563  0.1990388586176266   F   F   F
  0.7500000114023848  0.1253633646095480  0.1990386859845685   F   F   F
  0.2528196634013314  0.3793547971585838  0.3940284718485885   T   T   T
  0.7511180799766308  0.3806274470225799  0.3942012831628778   T   T   T
  0.7515131701103408  0.1190791842411646  0.3941611423629477   T   T   T
  0.7500000000000000  0.8750000000000001  0.0986326357059468   F   F   F
  0.7500000000000000  0.6250000000000000  0.0986326357059468   F   F   F
  0.7514338161059649  0.1249720203341659  0.2979927073471861   T   T   T
  0.7500002133337702  0.6253633161861458  0.1990388060063921   F   F   F
  0.7513777798611524  0.8747798246503087  0.2980236430321356   T   T   T
  0.7510650643049538  0.6248966503197333  0.2979440429532744   T   T   T
  0.5000001784867223  0.6253637522044784  0.1990389446145571   F   F   F
  0.7500002014178618  0.8746343896298043  0.1990386967425195   F   F   F
  0.5000000000000000  0.6250000000000000  0.0986326357059468   F   F   F
  0.5000000000000000  0.8750000000000001  0.0986326357059468   F   F   F
  0.2500000725690796  0.8746359244060571  0.1990388968624472   F   F   F
  0.4999995794704333  0.8746354974934151  0.1990386872989447   F   F   F
  0.2525566490934657  0.6204701334722333  0.3936175890847817   T   T   T
  0.7500004982174815  0.3746360905691121  0.1990382815073986   F   F   F
  0.0000007785774372  0.8746366631057754  0.1990387117510650   F   F   F
  0.0014298035313162  0.1190469052360950  0.3939519699819315   T   T   T
  0.2513681743034206  0.3753904761810100  0.2983456638448505   T   T   T
  0.0000000000000000  0.6250000000000000  0.0986326357059468   F   F   F
  0.0015081872225786  0.8804880367501007  0.3940436697845519   T   T   T
  0.2515307638511501  0.1248555759332431  0.2977953164620393   T   T   T
  0.0000001489023802  0.6253641828117367  0.1990385236877970   F   F   F
  0.7509765517128804  0.3749078267669844  0.2979283240658445   T   T   T
  0.5015659430155678  0.8749949183442420  0.2980390960789647   T   T   T
  0.5015947965635623  0.6251035441849558  0.2979663424679311   T   T   T
  0.5014330338738473  0.8806807658993953  0.3943467853089227   T   T   T
  0.7511900129540117  0.6192501846054143  0.3943539930185095   T   T   T
  0.0013820831894469  0.8752003728125867  0.2977210070648583   T   T   T
  0.0012647393195688  0.6245366552735251  0.2983214654113275   T   T   T
  0.9994873898765786  0.3791982649988097  0.3938331861466826   T   T   T
  0.0013588941192318  0.3753692714789116  0.2983421817586743   T   T   T
  0.7500000000000000  0.3750000000000000  0.0986326357059468   F   F   F
  0.0013222654617127  0.1245790117494970  0.2977075089370915   T   T   T
  0.1165514414969011  0.4956361995683620  0.4560997506157212   T   T   T
  0.0000000000000000  0.1250000000000000  0.0986326357059468   F   F   F
  0.5015661179687972  0.6192750002336138  0.3943277147731833   T   T   T
  0.2500003118916112  0.1253643742758399  0.1990388468832407   F   F   F
  0.0000000000000000  0.3750000000000000  0.0986326357059468   F   F   F
  0.2499998638177345  0.3746354513558003  0.1990391137478582   F   F   F
 -0.0000000000000000  0.8750000000000001  0.0986326357059468   F   F   F
  0.2500000000000000  0.3750000000000000  0.0986326357059468   F   F   F
  0.0000002712633389  0.3746360819220342  0.1990386009744327   F   F   F
  0.0000003667133441  0.1253639748692095  0.1990386316366823   F   F   F
  0.9997715362336439  0.6204305152014602  0.3938902725507301   T   T   T
  0.2500000000000000  0.1250000000000000  0.0986326357059468   F   F   F
  0.8762759959797345  0.9998510909511474  0.2967986132491733   T   T   T
  0.7505663476430302  0.2499259005947508  0.2489873638910129   T   T   T
  0.7506254520231740  0.7499520991267925  0.2490018297144289   T   T   T
  0.1249992154568318  0.0000000621413534  0.1993179005561529   F   F   F
  0.7499999695802728  0.7499987873488365  0.1487766346932489   F   F   F
  0.1250000000000000  0.0000000000000000  0.0986326357059468   F   F   F
  0.7500000714258093  0.2500001333654538  0.1487767298788683   F   F   F
  0.1263960132147162  0.9998532933992023  0.3893724430129682   T   T   T
  0.8759160686546431  0.4999091671542206  0.2970690835790568   T   T   T
  0.8750000000000000  0.0000000000000000  0.0986326357059468   F   F   F
  0.7500000000000000  0.2500000000000000  0.0488797184302712   F   F   F
  0.7512812403131672  0.7498005090749172  0.3497948238784028   T   T   T
  0.8749990435797272  0.9999988729247137  0.1993176942245043   F   F   F
  0.0000001104490295  0.2500003692293262  0.1487770372582347   F   F   F
  0.6249997369785589  0.5000005243672163  0.1993177510521278   F   F   F
  0.3767473988202558  0.4999843697376650  0.2969717790206803   T   T   T
  0.3750000000000000  0.0000000000000000  0.0986326357059468   F   F   F
  0.2512680184428345  0.7505809416702641  0.3492215310893177   T   T   T
  0.3768041792285297  0.4999269283067571  0.3890988139159509   T   T   T
  0.6262815140815721  0.4999745620698358  0.2968839223289437   T   T   T
  0.2500001827845821  0.2500004790494259  0.1487770501254815   F   F   F
  0.3767314757737253  0.0001316021959292  0.2968183988451503   T   T   T
  0.8750000000000000  0.5000000000000000  0.0986326357059468   F   F   F
  0.7500000000000000  0.7500000000000000  0.0488797184302712   F   F   F
  0.8749998623887123  0.5000001886345942  0.1993177285951333   F   F   F
  0.0011512306287135  0.2503097383143066  0.2489622877940261   T   T   T
  0.8765047619293301  0.9997927316540378  0.3894622821413104   T   T   T
  0.8760615613597672  0.4998533494523075  0.3891743685290329   T   T   T
  0.7511982743277263  0.2498968310118852  0.3497313376033080   T   T   T
  0.1264694067957257  0.0000342542892544  0.2967807353290112   T   T   T
  0.6264441365368528  0.4999451569507660  0.3896609020655524   T   T   T
  0.5000000000000000  0.7500000000000000  0.0488797184302712   F   F   F
  0.5016103031730190  0.7499883965342061  0.3498084269372003   T   T   T
  0.0011512834200955  0.2494832715039411  0.3493310910221099   T   T   T
  0.0000000644614886  0.7499997055339590  0.1487767856558975   F   F   F
  0.5009438122669410  0.7500787884908379  0.2490151482784167   T   T   T
  0.1263712778264700  0.4996494532469251  0.3905362948533470   T   T   T
  0.6250000000000000  0.0000000000000000  0.0986326357059468   F   F   F
  0.5000000000000000  0.2500000000000000  0.0488797184302712   F   F   F
  0.3763789762012624  0.9999080404291424  0.3895564613787389   T   T   T
  0.2513162540691269  0.2496242778483162  0.3493737020452798   T   T   T
  0.2501374457572986  0.2503387214395781  0.2489830275755463   T   T   T
  0.2500000000000000  0.7500000000000000  0.0488797184302712   F   F   F
  0.3750000000000000  0.5000000000000000  0.0986326357059468   F   F   F
  0.3750013085010480  0.9999996425241093  0.1993178715196748   F   F   F
  0.2500002436688717  0.7499998371993470  0.1487767841964001   F   F   F
  0.5000000890861074  0.7499991063848839  0.1487764921061228   F   F   F
  0.1263585527495461  0.4999605799570487  0.2986045248371523   T   T   T
  0.6250000000000000  0.5000000000000000  0.0986326357059468   F   F   F
  0.0011544310855730  0.7496351868280124  0.2489555121715817   T   T   T
  0.6264562232110948  0.9998916877062822  0.3895406032146899   T   T   T
  0.5015864002961886  0.2499201747183547  0.3498239306575394   T   T   T
  0.6265563348633273  0.9999500587197536  0.2970087389970437   T   T   T
  0.5008892572850985  0.2499723759794105  0.2490121158214156   T   T   T
  0.0012700818430661  0.7502216123791215  0.3493401478260877   T   T   T
  0.6250011512513112  0.9999984342009611  0.1993176556340757   F   F   F
  0.5000000412290433  0.2500002002978405  0.1487764123606183   F   F   F
  0.1250000000000000  0.5000000000000000  0.0986326357059468   F   F   F
  0.0000000000000000  0.2500000000000000  0.0488797184302712   F   F   F
  0.3750004864510714  0.5000000253507224  0.1993181014519436   F   F   F
  0.1250005006673192  0.4999996619028693  0.1993179793341469   F   F   F
  0.2500000000000000  0.2500000000000000  0.0488797184302712   F   F   F
  0.2502547892208344  0.7497135059675180  0.2489322524448790   T   T   T
  0.0000000000000000  0.7500000000000000  0.0488797184302712   F   F   F
Cartesian
  0.0000000000000000  0.0000000000000000  0.0000000000000000
  0.0000000000000000  0.0000000000000000  0.0000000000000000
  0.0000000000000000  0.0000000000000000  0.0000000000000000
  0.0000000000000000  0.0000000000000000  0.0000000000000000
  0.0000000000000000  0.0000000000000000  0.0000000000000000
  0.0000000000000000  0.0000000000000000  0.0000000000000000
  0.0000000000000000  0.0000000000000000  0.0000000000000000
  0.0000000000000000  0.0000000000000000  0.0000000000000000
  0.0000000000000000  0.0000000000000000  0.0000000000000000
  0.0000000000000000  0.0000000000000000  0.0000000000000000
  0.0000000000000000  0.0000000000000000  0.0000000000000000
  0.0000000000000000  0.0000000000000000  0.0000000000000000
  0.0000000000000000  0.0000000000000000  0.0000000000000000
  0.0000000000000000  0.0000000000000000  0.0000000000000000
  0.0000000000000000  0.0000000000000000  0.0000000000000000
  0.0000000000000000  0.0000000000000000  0.0000000000000000
  0.0000000000000000  0.0000000000000000  0.0000000000000000
  0.0000000000000000  0.0000000000000000  0.0000000000000000
  0.0000000000000000  0.0000000000000000  0.0000000000000000
  0.0000000000000000  0.0000000000000000  0.0000000000000000
  0.0000000000000000  0.0000000000000000  0.0000000000000000
  0.0000000000000000  0.0000000000000000  0.0000000000000000
  0.0000000000000000  0.0000000000000000  0.0000000000000000
  0.0000000000000000  0.0000000000000000  0.0000000000000000
  0.0000000000000000  0.0000000000000000  0.0000000000000000
  0.0000000000000000  0.0000000000000000  0.0000000000000000
  0.0000000000000000  0.0000000000000000  0.0000000000000000
  0.0000000000000000  0.0000000000000000  0.0000000000000000
  0.0000000000000000  0.0000000000000000  0.0000000000000000
  0.0000000000000000  0.0000000000000000  0.0000000000000000
  0.0000000000000000  0.0000000000000000  0.0000000000000000
  0.0000000000000000  0.0000000000000000  0.0000000000000000
  0.0000000000000000  0.0000000000000000  0.0000000000000000
  0.0000000000000000  0.0000000000000000  0.0000000000000000
  0.0000000000000000  0.0000000000000000  0.0000000000000000
  0.0000000000000000  0.0000000000000000  0.0000000000000000
  0.0000000000000000  0.0000000000000000  0.0000000000000000
  0.0000000000000000  0.0000000000000000  0.0000000000000000
  0.0000000000000000  0.0000000000000000  0.0000000000000000
  0.0000000000000000  0.0000000000000000  0.0000000000000000
  0.0000000000000000  0.0000000000000000  0.0000000000000000
  0.0000000000000000  0.0000000000000000  0.0000000000000000
  0.0000000000000000  0.0000000000000000  0.0000000000000000
  0.0000000000000000  0.0000000000000000  0.0000000000000000
  0.0000000000000000  0.0000000000000000  0.0000000000000000
  0.0000000000000000  0.0000000000000000  0.0000000000000000
  0.0000000000000000  0.0000000000000000  0.0000000000000000
  0.0000000000000000  0.0000000000000000  0.0000000000000000
  0.0000000000000000  0.0000000000000000  0.0000000000000000
  0.0000000000000000  0.0000000000000000  0.0000000000000000
  0.0000000000000000  0.0000000000000000  0.0000000000000000
  0.0000000000000000  0.0000000000000000  0.0000000000000000
  0.0000000000000000  0.0000000000000000  0.0000000000000000
  0.0000000000000000  0.0000000000000000  0.0000000000000000
  0.0000000000000000  0.0000000000000000  0.0000000000000000
  0.0000000000000000  0.0000000000000000  0.0000000000000000
  0.0000000000000000  0.0000000000000000  0.0000000000000000
  0.0000000000000000  0.0000000000000000  0.0000000000000000
  0.0000000000000000  0.0000000000000000  0.0000000000000000
  0.0000000000000000  0.0000000000000000  0.0000000000000000
  0.0000000000000000  0.0000000000000000  0.0000000000000000
  0.0000000000000000  0.0000000000000000  0.0000000000000000
  0.0000000000000000  0.0000000000000000  0.0000000000000000
  0.0000000000000000  0.0000000000000000  0.0000000000000000
  0.0000000000000000  0.0000000000000000  0.0000000000000000
  0.0000000000000000  0.0000000000000000  0.0000000000000000
  0.0000000000000000  0.0000000000000000  0.0000000000000000
  0.0000000000000000  0.0000000000000000  0.0000000000000000
  0.0000000000000000  0.0000000000000000  0.0000000000000000
  0.0000000000000000  0.0000000000000000  0.0000000000000000
  0.0000000000000000  0.0000000000000000  0.0000000000000000
  0.0000000000000000  0.0000000000000000  0.0000000000000000
  0.0000000000000000  0.0000000000000000  0.0000000000000000
  0.0000000000000000  0.0000000000000000  0.0000000000000000
  0.0000000000000000  0.0000000000000000  0.0000000000000000
  0.0000000000000000  0.0000000000000000  0.0000000000000000
  0.0000000000000000  0.0000000000000000  0.0000000000000000
  0.0000000000000000  0.0000000000000000  0.0000000000000000
  0.0000000000000000  0.0000000000000000  0.0000000000000000
  0.0000000000000000  0.0000000000000000  0.0000000000000000
  0.0000000000000000  0.0000000000000000  0.0000000000000000
  0.0000000000000000  0.0000000000000000  0.0000000000000000
  0.0000000000000000  0.0000000000000000  0.0000000000000000
  0.0000000000000000  0.0000000000000000  0.0000000000000000
  0.0000000000000000  0.0000000000000000  0.0000000000000000
  0.0000000000000000  0.0000000000000000  0.0000000000000000
  0.0000000000000000  0.0000000000000000  0.0000000000000000
  0.0000000000000000  0.0000000000000000  0.0000000000000000
  0.0000000000000000  0.0000000000000000  0.0000000000000000
  0.0000000000000000  0.0000000000000000  0.0000000000000000
  0.0000000000000000  0.0000000000000000  0.0000000000000000
  0.0000000000000000  0.0000000000000000  0.0000000000000000
  0.0000000000000000  0.0000000000000000  0.0000000000000000
  0.0000000000000000  0.0000000000000000  0.0000000000000000
  0.0000000000000000  0.0000000000000000  0.0000000000000000
  0.0000000000000000  0.0000000000000000  0.0000000000000000
  0.0000000000000000  0.0000000000000000  0.0000000000000000
  0.0000000000000000  0.0000000000000000  0.0000000000000000
  0.0000000000000000  0.0000000000000000  0.0000000000000000
  0.0000000000000000  0.0000000000000000  0.0000000000000000
  0.0000000000000000  0.0000000000000000  0.0000000000000000
  0.0000000000000000  0.0000000000000000  0.0000000000000000
  0.0000000000000000  0.0000000000000000  0.0000000000000000
  0.0000000000000000  0.0000000000000000  0.0000000000000000
  0.0000000000000000  0.0000000000000000  0.0000000000000000
  0.0000000000000000  0.0000000000000000  0.0000000000000000
  0.0000000000000000  0.0000000000000000  0.0000000000000000
  0.0000000000000000  0.0000000000000000  0.0000000000000000
  0.0000000000000000  0.0000000000000000  0.0000000000000000
  0.0000000000000000  0.0000000000000000  0.0000000000000000
  0.0000000000000000  0.0000000000000000  0.0000000000000000
  0.0000000000000000  0.0000000000000000  0.0000000000000000
  0.0000000000000000  0.0000000000000000  0.0000000000000000
  0.0000000000000000  0.0000000000000000  0.0000000000000000
  0.0000000000000000  0.0000000000000000  0.0000000000000000
  0.0000000000000000  0.0000000000000000  0.0000000000000000
  0.0000000000000000  0.0000000000000000  0.0000000000000000
  0.0000000000000000  0.0000000000000000  0.0000000000000000
  0.0000000000000000  0.0000000000000000  0.0000000000000000
  0.0000000000000000  0.0000000000000000  0.0000000000000000
  0.0000000000000000  0.0000000000000000  0.0000000000000000
  0.0000000000000000  0.0000000000000000  0.0000000000000000
  0.0000000000000000  0.0000000000000000  0.0000000000000000
  0.0000000000000000  0.0000000000000000  0.0000000000000000
  0.0000000000000000  0.0000000000000000  0.0000000000000000
  0.0000000000000000  0.0000000000000000  0.0000000000000000
  0.0000000000000000  0.0000000000000000  0.0000000000000000
  0.0000000000000000  0.0000000000000000  0.0000000000000000
  0.0000000000000000  0.0000000000000000  0.0000000000000000
  0.0000000000000000  0.0000000000000000  0.0000000000000000
  0.0000000000000000  0.0000000000000000  0.0000000000000000
  0.0000000000000000  0.0000000000000000  0.0000000000000000
  0.0000000000000000  0.0000000000000000  0.0000000000000000
