SYSTEM = pddmc
ENCUT = 520
PREC = Accurate
LASPH = .TRUE.
ADDGRID = .TRUE.
ISPIN = 2
IVDW = 12
EDIFF = 1e-06
NELM = 500
NELMIN = 5
ALGO = Normal
NCORE = 1
LREAL = Auto
LWAVE = .FALSE.
LCHARG = .FALSE.
LORBIT = 11
ISYM = 0
IBRION = 2
NSW = 300
ISIF = 2
ISMEAR = 0
SIGMA = 0.05
EDIFFG = -0.03
LDIPOL = .TRUE.
IDIPOL = 3
KSPACING = 0.25
