C  O  Pd
 1.0000000000000000
    12.3034736924171124    0.0000000000000000    0.0000000000000000
     0.0000000000000000   12.3034736924171142    0.0000000000000000
     0.0000000000000000    0.0000000000000000   29.1654207465942434
 C   O   Pd 
   1  17  96
Selective dynamics
Direct
  0.7279784316668750  0.8230392981608613  0.4009364743307531   T   T   T
  0.6874963224095970  0.9455365602526655  0.3197502658049446   T   T   T
  0.6863966888944313  0.1368044715825192  0.3614706774746522   T   T   T
  0.1860668772703268  0.6350322660969056  0.3617498648508752   T   T   T
  0.4371200610829465  0.1337722219804779  0.3627692909841617   T   T   T
  0.4346537854240292  0.4381427214625376  0.3209412576795104   T   T   T
  0.1885219324458433  0.9409410695230689  0.3206736344102986   T   T   T
  0.1860654522650770  0.1350660321167177  0.3614413712538080   T   T   T
  0.1883985362114453  0.4411109861895766  0.3208619469302947   T   T   T
  0.7583529191257690  0.8431107824445757  0.4374296377614209   T   T   T
  0.6886865035467544  0.4413428622519877  0.3202825655968990   T   T   T
  0.4384710163508741  0.6326900810596463  0.3624215767234517   T   T   T
  0.4348575250542242  0.9384022329084474  0.3214695660349638   T   T   T
  0.6853043277299156  0.6292068217253598  0.3635740621256347   T   T   T
  0.9351890262556192  0.9379236719629634  0.3213952833660584   T   T   T
  0.9396252043475377  0.1333992408150178  0.3625781398949859   T   T   T
  0.9390959882527081  0.6325389036002825  0.3627075083540880   T   T   T
  0.9351126978407642  0.4380049680355152  0.3211731447901012   T   T   T
  0.1499999999999986  0.1499999999999986  0.0514307684100572   F   F   F
  0.8500000000000014  0.0499999999999972  0.0514307684100572   F   F   F
  0.9003901385233900  0.9032038476870771  0.2536147982067902   T   T   T
  0.1507236091547503  0.1489864169829936  0.1853656493630883   F   F   F
  0.2999999999999972  0.2000000000000028  0.1181313319610595   F   F   F
  0.0000000000000000  0.1000000000000014  0.1181313319610595   F   F   F
  0.9500000000000028  0.2500000000000000  0.0514307684100572   F   F   F
  0.2499707131254955  0.8492987964248615  0.1855932700389138   T   T   T
  0.8485330413376032  0.0512636254534289  0.1852339871257567   F   F   F
  0.9486127127564162  0.2506768571014975  0.1843632683220324   F   F   F
  0.1000000000000014  0.2999999999999972  0.1181313319610595   F   F   F
  0.5612055389300314  0.5395425446116595  0.3394960087937296   T   T   T
  0.0618787707078080  0.0399287337686990  0.3398656860542244   T   T   T
  0.0960583335459285  0.2968891773833193  0.2521328230987406   T   T   T
  0.0499999999999972  0.4500000000000027  0.0514307684100572   F   F   F
  0.2000000000000028  0.5000000000000000  0.1181313319610595   F   F   F
  0.0491193131827514  0.4512444611448465  0.1844626448581111   F   F   F
  0.1956267079338231  0.4987857167896710  0.2540452451819155   T   T   T
  0.2981067567233891  0.2004211067713207  0.2571643985202739   T   T   T
  0.9970889692903134  0.1057991353712744  0.2533643279564191   T   T   T
  0.1891016847715472  0.2802765928678576  0.3347074301734878   T   T   T
  0.3485341556527256  0.0512641898857512  0.1852337169709379   F   F   F
  0.5000000000000000  0.1000000000000014  0.1181313319610595   F   F   F
  0.9417220538546413  0.7730431758597008  0.3311232897146289   T   T   T
  0.4021467468809974  0.9023834955620510  0.2535207723767114   T   T   T
  0.1890541950954556  0.7801567673889894  0.3347949455168452   T   T   T
  0.3126226331448546  0.0428546084552507  0.3399940898987684   T   T   T
  0.8131229866325543  0.5424449693559316  0.3400398501338294   T   T   T
  0.6897162780682765  0.2811612911257299  0.3342727116946976   T   T   T
  0.9394418542141610  0.2744386875230216  0.3319005843702009   T   T   T
  0.4368670477036588  0.7740784544769459  0.3316831588351228   T   T   T
  0.0618220326207159  0.5398611324027414  0.3400191382175380   T   T   T
  0.6892675333135223  0.7837339417868805  0.3400176535167430   T   T   T
  0.3126961433218753  0.5428064031023213  0.3400497884369171   T   T   T
  0.5611081575575294  0.0425785638424435  0.3398569400633522   T   T   T
  0.8999999999999986  0.8999999999999986  0.1181313319610595   F   F   F
  0.9010139802820428  0.4033567727048970  0.2534157433411486   T   T   T
  0.2499682108142002  0.3493012120833129  0.1855937382329413   T   T   T
  0.2500000000000000  0.3500000000000014  0.0514307684100572   F   F   F
  0.2500000000000000  0.8500000000000014  0.0514307684100572   F   F   F
  0.4371429753321887  0.2744775190026819  0.3318192815108239   T   T   T
  0.1507252829162628  0.6489864416498848  0.1853659281879895   F   F   F
  0.4500000000000028  0.2500000000000000  0.0514307684100572   F   F   F
  0.4966916404956181  0.1059442704744549  0.2532861764606416   T   T   T
  0.3500000000000014  0.5499999999999972  0.0514307684100572   F   F   F
  0.8132712243510977  0.0452910357720276  0.3393148990629740   T   T   T
  0.8999999999999986  0.3999999999999986  0.1181313319610595   F   F   F
  0.1961700928035607 -0.0009140523545169  0.2539751878845281   T   T   T
  0.2979003555045849  0.7002829760501663  0.2572404198633190   T   T   T
  0.7500000000000000  0.8500000000000014  0.0514307684100572   F   F   F
  0.7973794031395746  0.7011025028553793  0.2580267756545994   T   T   T
  0.2999999999999972  0.7000000000000028  0.1181313319610595   F   F   F
  0.6000000000000014  0.2999999999999972  0.1181313319610595   F   F   F
  0.7999999999999972  0.7000000000000028  0.1181313319610595   F   F   F
  0.6958167369774186 -0.0001798394968178  0.2528707380635996   T   T   T
  0.5491182374295687  0.9512475927721618  0.1844623188205349   F   F   F
  0.7000000000000027  0.0000000000000000  0.1181313319610595   F   F   F
  0.5499999999999972  0.9500000000000028  0.0514307684100572   F   F   F
  0.5989130037338892  0.7965682429881857  0.2541497686730754   T   T   T
  0.6507236918031661  0.6489854869807887  0.1853661340816861   F   F   F
  0.6499999999999986  0.6499999999999986  0.0514307684100572   F   F   F
  0.6000000000000014  0.7999999999999972  0.1181313319610595   F   F   F
  0.5499999999999972  0.4500000000000027  0.0514307684100572   F   F   F
  0.4486122021981009  0.2506766379109669  0.1843629363752118   F   F   F
  0.5957527877726654  0.2969893674310503  0.2519795585837052   T   T   T
  0.5000000000000000  0.6000000000000014  0.1181313319610595   F   F   F
  0.3485320028910852  0.5512631916718084  0.1852336449463447   F   F   F
  0.4968624373375510  0.6066470824498842  0.2531045267527166   T   T   T
  0.4500000000000028  0.7500000000000000  0.0514307684100572   F   F   F
  0.4486144413896602  0.7506743341769924  0.1843622545089304   F   F   F
  0.1499999999999986  0.6499999999999986  0.0514307684100572   F   F   F
  0.9500000000000028  0.7500000000000000  0.0514307684100572   F   F   F
  0.0491177240126065  0.9512405474851490  0.1844615703293516   F   F   F
  0.7499668075026139  0.8492990416203603  0.1855918419518905   T   T   T
  0.2000000000000028  0.0000000000000000  0.1181313319610595   F   F   F
  0.0499999999999972  0.9500000000000028  0.0514307684100572   F   F   F
  0.0965061561412423  0.7973508284831293  0.2520424335443623   T   T   T
  0.9486106854241280  0.7506756416198153  0.1843625136127240   F   F   F
  0.3999999999999986  0.8999999999999986  0.1181313319610595   F   F   F
  0.9968127462159729  0.6065004889151649  0.2533566965662048   T   T   T
  0.8485338373677122  0.5512634687110046  0.1852339858465592   F   F   F
  0.0000000000000000  0.6000000000000014  0.1181313319610595   F   F   F
  0.8500000000000014  0.5499999999999972  0.0514307684100572   F   F   F
  0.4004556576303861  0.4029302980256114  0.2533665904789998   T   T   T
  0.7499688545785510  0.3493009249718623  0.1855923550188662   T   T   T
  0.3999999999999986  0.3999999999999986  0.1181313319610595   F   F   F
  0.7500000000000000  0.3500000000000014  0.0514307684100572   F   F   F
  0.7985709163597678  0.2007604879241171  0.2571025802138312   T   T   T
  0.6507246110173561  0.1489888581776777  0.1853660239556655   F   F   F
  0.7999999999999972  0.2000000000000028  0.1181313319610595   F   F   F
  0.6499999999999986  0.1499999999999986  0.0514307684100572   F   F   F
  0.6957911484190281  0.4997371398201667  0.2538481924241598   T   T   T
  0.5491175178526683  0.4512445656232251  0.1844618875770611   F   F   F
  0.7000000000000027  0.5000000000000000  0.1181313319610595   F   F   F
  0.3500000000000014  0.0499999999999972  0.0514307684100572   F   F   F
  0.1000000000000014  0.7999999999999972  0.1181313319610595   F   F   F
Cartesian
  0.0000000000000000  0.0000000000000000  0.0000000000000000
  0.0000000000000000  0.0000000000000000  0.0000000000000000
  0.0000000000000000  0.0000000000000000  0.0000000000000000
  0.0000000000000000  0.0000000000000000  0.0000000000000000
  0.0000000000000000  0.0000000000000000  0.0000000000000000
  0.0000000000000000  0.0000000000000000  0.0000000000000000
  0.0000000000000000  0.0000000000000000  0.0000000000000000
  0.0000000000000000  0.0000000000000000  0.0000000000000000
  0.0000000000000000  0.0000000000000000  0.0000000000000000
  0.0000000000000000  0.0000000000000000  0.0000000000000000
  0.0000000000000000  0.0000000000000000  0.0000000000000000
  0.0000000000000000  0.0000000000000000  0.0000000000000000
  0.0000000000000000  0.0000000000000000  0.0000000000000000
  0.0000000000000000  0.0000000000000000  0.0000000000000000
  0.0000000000000000  0.0000000000000000  0.0000000000000000
  0.0000000000000000  0.0000000000000000  0.0000000000000000
  0.0000000000000000  0.0000000000000000  0.0000000000000000
  0.0000000000000000  0.0000000000000000  0.0000000000000000
  0.0000000000000000  0.0000000000000000  0.0000000000000000
  0.0000000000000000  0.0000000000000000  0.0000000000000000
  0.0000000000000000  0.0000000000000000  0.0000000000000000
  0.0000000000000000  0.0000000000000000  0.0000000000000000
  0.0000000000000000  0.0000000000000000  0.0000000000000000
  0.0000000000000000  0.0000000000000000  0.0000000000000000
  0.0000000000000000  0.0000000000000000  0.0000000000000000
  0.0000000000000000  0.0000000000000000  0.0000000000000000
  0.0000000000000000  0.0000000000000000  0.0000000000000000
  0.0000000000000000  0.0000000000000000  0.0000000000000000
  0.0000000000000000  0.0000000000000000  0.0000000000000000
  0.0000000000000000  0.0000000000000000  0.0000000000000000
  0.0000000000000000  0.0000000000000000  0.0000000000000000
  0.0000000000000000  0.0000000000000000  0.0000000000000000
  0.0000000000000000  0.0000000000000000  0.0000000000000000
  0.0000000000000000  0.0000000000000000  0.0000000000000000
  0.0000000000000000  0.0000000000000000  0.0000000000000000
  0.0000000000000000  0.0000000000000000  0.0000000000000000
  0.0000000000000000  0.0000000000000000  0.0000000000000000
  0.0000000000000000  0.0000000000000000  0.0000000000000000
  0.0000000000000000  0.0000000000000000  0.0000000000000000
  0.0000000000000000  0.0000000000000000  0.0000000000000000
  0.0000000000000000  0.0000000000000000  0.0000000000000000
  0.0000000000000000  0.0000000000000000  0.0000000000000000
  0.0000000000000000  0.0000000000000000  0.0000000000000000
  0.0000000000000000  0.0000000000000000  0.0000000000000000
  0.0000000000000000  0.0000000000000000  0.0000000000000000
  0.0000000000000000  0.0000000000000000  0.0000000000000000
  0.0000000000000000  0.0000000000000000  0.0000000000000000
  0.0000000000000000  0.0000000000000000  0.0000000000000000
  0.0000000000000000  0.0000000000000000  0.0000000000000000
  0.0000000000000000  0.0000000000000000  0.0000000000000000
  0.0000000000000000  0.0000000000000000  0.0000000000000000
  0.0000000000000000  0.0000000000000000  0.0000000000000000
  0.0000000000000000  0.0000000000000000  0.0000000000000000
  0.0000000000000000  0.0000000000000000  0.0000000000000000
  0.0000000000000000  0.0000000000000000  0.0000000000000000
  0.0000000000000000  0.0000000000000000  0.0000000000000000
  0.0000000000000000  0.0000000000000000  0.0000000000000000
  0.0000000000000000  0.0000000000000000  0.0000000000000000
  0.0000000000000000  0.0000000000000000  0.0000000000000000
  0.0000000000000000  0.0000000000000000  0.0000000000000000
  0.0000000000000000  0.0000000000000000  0.0000000000000000
  0.0000000000000000  0.0000000000000000  0.0000000000000000
  0.0000000000000000  0.0000000000000000  0.0000000000000000
  0.0000000000000000  0.0000000000000000  0.0000000000000000
  0.0000000000000000  0.0000000000000000  0.0000000000000000
  0.0000000000000000  0.0000000000000000  0.0000000000000000
  0.0000000000000000  0.0000000000000000  0.0000000000000000
  0.0000000000000000  0.0000000000000000  0.0000000000000000
  0.0000000000000000  0.0000000000000000  0.0000000000000000
  0.0000000000000000  0.0000000000000000  0.0000000000000000
  0.0000000000000000  0.0000000000000000  0.0000000000000000
  0.0000000000000000  0.0000000000000000  0.0000000000000000
  0.0000000000000000  0.0000000000000000  0.0000000000000000
  0.0000000000000000  0.0000000000000000  0.0000000000000000
  0.0000000000000000  0.0000000000000000  0.0000000000000000
  0.0000000000000000  0.0000000000000000  0.0000000000000000
  0.0000000000000000  0.0000000000000000  0.0000000000000000
  0.0000000000000000  0.0000000000000000  0.0000000000000000
  0.0000000000000000  0.0000000000000000  0.0000000000000000
  0.0000000000000000  0.0000000000000000  0.0000000000000000
  0.0000000000000000  0.0000000000000000  0.0000000000000000
  0.0000000000000000  0.0000000000000000  0.0000000000000000
  0.0000000000000000  0.0000000000000000  0.0000000000000000
  0.0000000000000000  0.0000000000000000  0.0000000000000000
  0.0000000000000000  0.0000000000000000  0.0000000000000000
  0.0000000000000000  0.0000000000000000  0.0000000000000000
  0.0000000000000000  0.0000000000000000  0.0000000000000000
  0.0000000000000000  0.0000000000000000  0.0000000000000000
  0.0000000000000000  0.0000000000000000  0.0000000000000000
  0.0000000000000000  0.0000000000000000  0.0000000000000000
  0.0000000000000000  0.0000000000000000  0.0000000000000000
  0.0000000000000000  0.0000000000000000  0.0000000000000000
  0.0000000000000000  0.0000000000000000  0.0000000000000000
  0.0000000000000000  0.0000000000000000  0.0000000000000000
  0.0000000000000000  0.0000000000000000  0.0000000000000000
  0.0000000000000000  0.0000000000000000  0.0000000000000000
  0.0000000000000000  0.0000000000000000  0.0000000000000000
  0.0000000000000000  0.0000000000000000  0.0000000000000000
  0.0000000000000000  0.0000000000000000  0.0000000000000000
  0.0000000000000000  0.0000000000000000  0.0000000000000000
  0.0000000000000000  0.0000000000000000  0.0000000000000000
  0.0000000000000000  0.0000000000000000  0.0000000000000000
  0.0000000000000000  0.0000000000000000  0.0000000000000000
  0.0000000000000000  0.0000000000000000  0.0000000000000000
  0.0000000000000000  0.0000000000000000  0.0000000000000000
  0.0000000000000000  0.0000000000000000  0.0000000000000000
  0.0000000000000000  0.0000000000000000  0.0000000000000000
  0.0000000000000000  0.0000000000000000  0.0000000000000000
  0.0000000000000000  0.0000000000000000  0.0000000000000000
  0.0000000000000000  0.0000000000000000  0.0000000000000000
  0.0000000000000000  0.0000000000000000  0.0000000000000000
  0.0000000000000000  0.0000000000000000  0.0000000000000000
  0.0000000000000000  0.0000000000000000  0.0000000000000000
  0.0000000000000000  0.0000000000000000  0.0000000000000000
