C  H  O  Pd
 1.0000000000000000
    11.0046904376558210    0.0000000000000000    0.0000000000000000
     0.0000000000000000   11.0046904376558210    0.0000000000000000
     0.0000000000000000    0.0000000000000000   27.7814912333251840
 C   H   O   Pd 
   1   3   1  80
Selective dynamics
Direct
  0.1224402976687462  0.1122445499075992  0.4280070203112962   T   T   T
  0.0363400911720859  0.1644916477195692  0.4249321393784868   T   T   T
  0.1987098413315587  0.1753810439799159  0.4192099395787590   T   T   T
  0.1334083415014898  0.0793073920932455  0.4653639673670158   T   T   T
  0.1221609066601472  0.0083691269827920  0.3970661561651638   T   T   T
  0.0000000000000000  0.7500000000000000  0.0539927820073487   F   F   F
  0.8750000000000000  0.1250000000000000  0.1240168419828507   F   F   F
  0.6250000000000001  0.1250000000000000  0.1240168419828507   F   F   F
  0.0000000000000000  0.5000000000000000  0.0539927820073487   F   F   F
  0.2500000000000000  0.0000000000000000  0.0539927820073487   F   F   F
  0.5000000000000000  0.0000000000000000  0.0539927820073487   F   F   F
  0.7500000000000000  0.0000000000000000  0.0539927820073487   F   F   F
  0.2500000000000000  0.7500000000000000  0.0539927820073487   F   F   F
  0.0000000000000000  0.2500000000000000  0.0539927820073487   F   F   F
  0.5000000000000000  0.2500000000000000  0.0539927820073487   F   F   F
  0.7500000000000000  0.2500000000000000  0.0539927820073487   F   F   F
  0.2500000000000000  0.5000000000000000  0.0539927820073487   F   F   F
  0.3750000000000000  0.1250000000000000  0.1240168419828507   F   F   F
  0.5000000000000000  0.5000000000000000  0.0539927820073487   F   F   F
  0.7500000000000000  0.5000000000000000  0.0539927820073487   F   F   F
  0.1250000000000000  0.3750000000000000  0.1240168419828507   F   F   F
  0.2500000000000000  0.2500000000000000  0.0539927820073487   F   F   F
  0.2504477104844479  0.2498556808526554  0.1954532163532090   F   F   F
  0.5000000000000000  0.7500000000000000  0.0539927820073487   F   F   F
  0.7503327248147890  0.7528677789142204  0.3387296242086185   T   T   T
  0.5014194498190141  0.7510235297523400  0.3387783784301605   T   T   T
  0.3750000000000000  0.3750000000000000  0.1240168419828507   F   F   F
  0.6250000000000001  0.3750000000000000  0.1240168419828507   F   F   F
  0.8750000000000000  0.3750000000000000  0.1240168419828507   F   F   F
  0.1250000000000000  0.6250000000000001  0.1240168419828507   F   F   F
  0.3750000000000000  0.6250000000000001  0.1240168419828507   F   F   F
  0.0001344778933071  0.2503566693461179  0.1954886515312083   F   F   F
  0.6250000000000001  0.6250000000000001  0.1240168419828507   F   F   F
  0.1250000000000000  0.8750000000000000  0.1240168419828507   F   F   F
  0.3750000000000000  0.8750000000000000  0.1240168419828507   F   F   F
  0.6250000000000001  0.8750000000000000  0.1240168419828507   F   F   F
  0.8750000000000000  0.8750000000000000  0.1240168419828507   F   F   F
  0.0003645116752716  0.0008325065263775  0.1955280539682917   T   T   T
  0.2496951036037904  0.0003136262814163  0.1955234355440829   T   T   T
  0.4994524016546227  0.0004221021871495  0.1957165780828770   T   T   T
  0.8750000000000000  0.6250000000000001  0.1240168419828507   F   F   F
  0.7505040978618202  0.0009218400539839  0.1956509289020558   T   T   T
  0.0000000000000000  0.0000000000000000  0.0539927820073487   F   F   F
  0.5000614286192999  0.2501905662243336  0.1955065956930663   F   F   F
  0.3739679901277438  0.1245845574708854  0.2676362080423064   T   T   T
  0.5006588863188813  0.5006396873392445  0.1954617894016623   F   F   F
  0.7506783840135617  0.5011265734373562  0.1954822783890071   F   F   F
  0.0000549860241996  0.7514936665786259  0.1955359289768878   T   T   T
  0.2507122797973593  0.7509689967407457  0.1955536400938221   T   T   T
  0.5002062929855363  0.7508430435809140  0.1955919405784699   T   T   T
  0.7504845381182538  0.7514462692766438  0.1955247172978022   T   T   T
  0.1247824873991634  0.1256596936441532  0.2675298043863527   T   T   T
  0.6249893645113176  0.1267027592429492  0.2667297794739059   T   T   T
  0.6260337250946382  0.6266664078929899  0.2668435251798441   T   T   T
  0.8757128215327291  0.1260809060046237  0.2675069608787996   T   T   T
  0.1259318983501355  0.3760590054099309  0.2664446414448926   T   T   T
  0.3764950433330104  0.3753078446366145  0.2667164228328396   T   T   T
  0.6261406042049970  0.3767027703624192  0.2668774456414872   T   T   T
  0.8757095211773044  0.3766792592974278  0.2666345795752407   T   T   T
  0.1261733569776270  0.6266584983140726  0.2664735459578436   T   T   T
  0.3764465335158388  0.6264006842911626  0.2668310609887906   T   T   T
  0.2508124021412286  0.5004274795363191  0.1953562698584024   F   F   F
  0.8758311282486708  0.6278641960515690  0.2667030021996663   T   T   T
  0.3737399658607038  0.8767278530582224  0.2680798732945738   T   T   T
  0.2511556180889143  0.7479037177260650  0.3387296212320411   T   T   T
  0.7503566532914658  0.2508202590458973  0.1954534977739402   F   F   F
  0.0005717195503341  0.5010173675689921  0.1953534025267066   F   F   F
  0.2516080430269116  0.2529373055545260  0.3386363342468663   T   T   T
  0.6250815716477587  0.8765190435019637  0.2668059086556765   T   T   T
  0.8763237569479778  0.8784928688812262  0.2679036354490416   T   T   T
 -0.0059967558006936  0.0020803399709023  0.3408108902140733   T   T   T
  0.2541996217943505  0.0001311648340268  0.3413284583413198   T   T   T
  0.5013507296559473  0.0012454787269651  0.3387527463735334   T   T   T
  0.1250000000000000  0.1250000000000000  0.1240168419828507   F   F   F
  0.7469276543059171  0.0030593705134046  0.3387434258101990   T   T   T
  0.5013635584614716  0.2510834909851590  0.3385041267741074   T   T   T
  0.1250216382435152  0.8763907058779044  0.2673876516895811   T   T   T
  0.7499961368617561  0.2531066444545864  0.3386900359174648   T   T   T
  0.0020695563204560  0.5024290441435314  0.3381572591267079   T   T   T
  0.2516871253369591  0.5007782488685790  0.3381805302187729   T   T   T
  0.5016009568668367  0.5010999658639477  0.3385981624143182   T   T   T
  0.7520384743618399  0.5029164115054664  0.3385831247180068   T   T   T
  0.0002294806997567  0.7497112195302348  0.3385126244039611   T   T   T
 -0.0006109142652152  0.2547399021283185  0.3384246543927883   T   T   T
  0.7500000000000000  0.7500000000000000  0.0539927820073487   F   F   F
Cartesian
  0.0000000000000000  0.0000000000000000  0.0000000000000000
  0.0000000000000000  0.0000000000000000  0.0000000000000000
  0.0000000000000000  0.0000000000000000  0.0000000000000000
  0.0000000000000000  0.0000000000000000  0.0000000000000000
  0.0000000000000000  0.0000000000000000  0.0000000000000000
  0.0000000000000000  0.0000000000000000  0.0000000000000000
  0.0000000000000000  0.0000000000000000  0.0000000000000000
  0.0000000000000000  0.0000000000000000  0.0000000000000000
  0.0000000000000000  0.0000000000000000  0.0000000000000000
  0.0000000000000000  0.0000000000000000  0.0000000000000000
  0.0000000000000000  0.0000000000000000  0.0000000000000000
  0.0000000000000000  0.0000000000000000  0.0000000000000000
  0.0000000000000000  0.0000000000000000  0.0000000000000000
  0.0000000000000000  0.0000000000000000  0.0000000000000000
  0.0000000000000000  0.0000000000000000  0.0000000000000000
  0.0000000000000000  0.0000000000000000  0.0000000000000000
  0.0000000000000000  0.0000000000000000  0.0000000000000000
  0.0000000000000000  0.0000000000000000  0.0000000000000000
  0.0000000000000000  0.0000000000000000  0.0000000000000000
  0.0000000000000000  0.0000000000000000  0.0000000000000000
  0.0000000000000000  0.0000000000000000  0.0000000000000000
  0.0000000000000000  0.0000000000000000  0.0000000000000000
  0.0000000000000000  0.0000000000000000  0.0000000000000000
  0.0000000000000000  0.0000000000000000  0.0000000000000000
  0.0000000000000000  0.0000000000000000  0.0000000000000000
  0.0000000000000000  0.0000000000000000  0.0000000000000000
  0.0000000000000000  0.0000000000000000  0.0000000000000000
  0.0000000000000000  0.0000000000000000  0.0000000000000000
  0.0000000000000000  0.0000000000000000  0.0000000000000000
  0.0000000000000000  0.0000000000000000  0.0000000000000000
  0.0000000000000000  0.0000000000000000  0.0000000000000000
  0.0000000000000000  0.0000000000000000  0.0000000000000000
  0.0000000000000000  0.0000000000000000  0.0000000000000000
  0.0000000000000000  0.0000000000000000  0.0000000000000000
  0.0000000000000000  0.0000000000000000  0.0000000000000000
  0.0000000000000000  0.0000000000000000  0.0000000000000000
  0.0000000000000000  0.0000000000000000  0.0000000000000000
  0.0000000000000000  0.0000000000000000  0.0000000000000000
  0.0000000000000000  0.0000000000000000  0.0000000000000000
  0.0000000000000000  0.0000000000000000  0.0000000000000000
  0.0000000000000000  0.0000000000000000  0.0000000000000000
  0.0000000000000000  0.0000000000000000  0.0000000000000000
  0.0000000000000000  0.0000000000000000  0.0000000000000000
  0.0000000000000000  0.0000000000000000  0.0000000000000000
  0.0000000000000000  0.0000000000000000  0.0000000000000000
  0.0000000000000000  0.0000000000000000  0.0000000000000000
  0.0000000000000000  0.0000000000000000  0.0000000000000000
  0.0000000000000000  0.0000000000000000  0.0000000000000000
  0.0000000000000000  0.0000000000000000  0.0000000000000000
  0.0000000000000000  0.0000000000000000  0.0000000000000000
  0.0000000000000000  0.0000000000000000  0.0000000000000000
  0.0000000000000000  0.0000000000000000  0.0000000000000000
  0.0000000000000000  0.0000000000000000  0.0000000000000000
  0.0000000000000000  0.0000000000000000  0.0000000000000000
  0.0000000000000000  0.0000000000000000  0.0000000000000000
  0.0000000000000000  0.0000000000000000  0.0000000000000000
  0.0000000000000000  0.0000000000000000  0.0000000000000000
  0.0000000000000000  0.0000000000000000  0.0000000000000000
  0.0000000000000000  0.0000000000000000  0.0000000000000000
  0.0000000000000000  0.0000000000000000  0.0000000000000000
  0.0000000000000000  0.0000000000000000  0.0000000000000000
  0.0000000000000000  0.0000000000000000  0.0000000000000000
  0.0000000000000000  0.0000000000000000  0.0000000000000000
  0.0000000000000000  0.0000000000000000  0.0000000000000000
  0.0000000000000000  0.0000000000000000  0.0000000000000000
  0.0000000000000000  0.0000000000000000  0.0000000000000000
  0.0000000000000000  0.0000000000000000  0.0000000000000000
  0.0000000000000000  0.0000000000000000  0.0000000000000000
  0.0000000000000000  0.0000000000000000  0.0000000000000000
  0.0000000000000000  0.0000000000000000  0.0000000000000000
  0.0000000000000000  0.0000000000000000  0.0000000000000000
  0.0000000000000000  0.0000000000000000  0.0000000000000000
  0.0000000000000000  0.0000000000000000  0.0000000000000000
  0.0000000000000000  0.0000000000000000  0.0000000000000000
  0.0000000000000000  0.0000000000000000  0.0000000000000000
  0.0000000000000000  0.0000000000000000  0.0000000000000000
  0.0000000000000000  0.0000000000000000  0.0000000000000000
  0.0000000000000000  0.0000000000000000  0.0000000000000000
  0.0000000000000000  0.0000000000000000  0.0000000000000000
  0.0000000000000000  0.0000000000000000  0.0000000000000000
  0.0000000000000000  0.0000000000000000  0.0000000000000000
  0.0000000000000000  0.0000000000000000  0.0000000000000000
  0.0000000000000000  0.0000000000000000  0.0000000000000000
  0.0000000000000000  0.0000000000000000  0.0000000000000000
  0.0000000000000000  0.0000000000000000  0.0000000000000000
